 vasp.6.1.2 22Jul20 (build Mar 19 2021 09:51:12) complex

 executed on             LinuxIFC date 2021.07.24  10:33:39

 INCAR:
 POTCAR:    PAW_PBE Ca_sv 06Sep2000
 POTCAR:    PAW_PBE Si 05Jan2001
 POTCAR:    PAW_PBE O 08Apr2002
 POTCAR:    PAW_PBE Ca_sv 06Sep2000
   VRHFIN =Ca: 3s3p4s

   TITEL  = PAW_PBE Ca_sv 06Sep2000
   POMASS =   40.078; ZVAL   =   10.000    mass and valenz
   ENMAX  =  266.622; ENMIN  =  199.967 eV

 POTCAR:    PAW_PBE Si 05Jan2001
   VRHFIN =Si: s2p2

   TITEL  = PAW_PBE Si 05Jan2001
   POMASS =   28.085; ZVAL   =    4.000    mass and valenz
   ENMAX  =  245.345; ENMIN  =  184.009 eV

 POTCAR:    PAW_PBE O 08Apr2002
   VRHFIN =O: s2p4

   TITEL  = PAW_PBE O 08Apr2002
   POMASS =   16.000; ZVAL   =    6.000    mass and valenz
   ENMAX  =  400.000; ENMIN  =  300.000 eV

 Optimization of the real space projectors (new method)

 maximal supplied QI-value         = 16.25
 optimisation between [QCUT,QGAM] = [ 11.54, 23.24] = [ 37.28,151.24] Ry
 Optimized for a Real-space Cutoff    1.58 Angstroem

   l    n(q)    QCUT    max X(q) W(low)/X(q) W(high)/X(q)  e(spline)
   0     11    11.539    11.817    0.25E-04    0.22E-05    0.26E-07
   0     11    11.539     8.461    0.39E-04    0.49E-05    0.55E-07
   1     11    11.539     3.957    0.21E-05    0.44E-05    0.32E-07
   1     11    11.539     4.314    0.56E-04    0.44E-04    0.19E-06
   2     10    11.539    14.565    0.25E-03    0.21E-04    0.75E-06
   2     10    11.539    14.552    0.23E-03    0.22E-04    0.72E-06
 Optimization of the real space projectors (new method)

[...]

   l    n(q)    QCUT    max X(q) W(low)/X(q) W(high)/X(q)  e(spline)
   0      8    11.508   159.560    0.71E-04    0.15E-03    0.51E-07
   0      8    11.508   115.863    0.70E-04    0.15E-03    0.51E-07
   1      8    11.508    88.339    0.16E-03    0.38E-04    0.82E-07
   1      8    11.508    48.592    0.15E-03    0.36E-04    0.79E-07
 Optimization of the real space projectors (new method)

 maximal supplied QI-value         = 24.76
 optimisation between [QCUT,QGAM] = [ 11.64, 23.27] = [ 37.91,151.63] Ry
 Optimized for a Real-space Cutoff    1.14 Angstroem

   l    n(q)    QCUT    max X(q) W(low)/X(q) W(high)/X(q)  e(spline)
   0      8    11.635    20.381    0.10E-03    0.33E-03    0.24E-06
   0      8    11.635    15.268    0.11E-03    0.35E-03    0.26E-06
   1      7    11.635     5.964    0.24E-03    0.31E-03    0.30E-06
   1      7    11.635     5.382    0.22E-03    0.25E-03    0.26E-06
  PAW_PBE Ca_sv 06Sep2000               :
  PAW_PBE Si 05Jan2001                  :
  PAW_PBE O 08Apr2002                   :

 POSCAR: Ca4 Si8 O20
  positions in direct lattice
  velocities in cartesian coordinates

 METAGGA = SCAN     LMAXTAU =  6    LMIXTAU =  F

 ion  position               nearest neighbor table
   1  0.458  0.320  0.818-  21 2.30  30 2.36  19 2.40  16 2.45  17 2.45  31 2.46  24 2.48  15 2.50
                            11 2.98  10 3.12
   2  0.542  0.680  0.182-  22 2.30  29 2.36  20 2.40  15 2.45  18 2.45  32 2.46  23 2.48  16 2.50
                            12 2.98   9 3.12
   3  0.029  0.214  0.612-  19 2.31  27 2.35  30 2.40  13 2.45  14 2.47  17 2.56  11 3.04
   4  0.971  0.786  0.388-  20 2.31  28 2.35  29 2.40  14 2.45  13 2.47  18 2.56  12 3.04
   5  0.500  0.000  0.500-  27 1.74  28 1.74  30 1.79  29 1.79  32 1.84  31 1.84  12 3.04  11 3.04

   6  1.000  0.500  0.000-  22 1.75  21 1.75  25 1.79  26 1.79  18 1.86  17 1.86   9 3.07  10 3.07

[...]

  13  0.996  0.901  0.718-  10 1.63   7 1.82   3 2.45   4 2.47
  14  0.004  0.099  0.282-   9 1.63   8 1.82   4 2.45   3 2.47
  15  0.498  0.634  0.827-  11 1.63   7 1.77   2 2.45   1 2.50
  16  0.502  0.366  0.173-  12 1.63   8 1.77   1 2.45   2 2.50
  17  0.156  0.256  0.949-   9 1.63   6 1.86   1 2.45   3 2.56
  18  0.844  0.744  0.051-  10 1.63   6 1.86   2 2.45   4 2.56
  19  0.698  0.388  0.570-  11 1.60   3 2.31   1 2.40
  20  0.302  0.612  0.430-  12 1.60   4 2.31   2 2.40
  21  0.189  0.581  0.885-   7 1.69   6 1.75   1 2.30
  22  0.811  0.419  0.115-   8 1.69   6 1.75   2 2.30
  23  0.224  0.877  0.022-   9 1.64   7 1.69   2 2.48
  24  0.776  0.123  0.978-  10 1.64   8 1.69   1 2.48
  25  0.101  0.460  0.251-  12 1.64   6 1.79
  26  0.899  0.540  0.749-  11 1.64   6 1.79
  27  0.305  0.934  0.620-   7 1.67   5 1.74   3 2.35
  28  0.695  0.066  0.380-   8 1.67   5 1.74   4 2.35
  29  0.652  0.759  0.475-  11 1.63   5 1.79   2 2.36   4 2.40
  30  0.348  0.241  0.525-  12 1.63   5 1.79   1 2.36   3 2.40
  31  0.600  0.984  0.754-  10 1.61   5 1.84   1 2.46
  32  0.400  0.016  0.246-   9 1.61   5 1.84   2 2.46

IMPORTANT INFORMATION: All symmetrisations will be switched off!
NOSYMM: (Re-)initialisation of all symmetry stuff for point group C_1.

                                     Primitive cell

  volume of cell :     329.6373

  direct lattice vectors                    reciprocal lattice vectors
     7.212224119  0.001438276  0.654329449     0.138666300 -0.050178612 -0.000030972
     2.540500225  7.019864833  1.120092558    -0.000039315  0.142447930  0.000120227
    -0.000534328 -0.005495109  6.510585447    -0.013929532 -0.019463921  0.153578447

  length of vectors
     7.241845472  7.548990065  6.510587788     0.147466054  0.142447986  0.155432350

  position of ions in fractional coordinates (direct lattice)
     0.458303000  0.319616471  0.818332915
     0.541696538  0.680383239  0.181667328
     0.028546903  0.214494589  0.611641227
     0.971450324  0.785506029  0.388360584
     0.499999425  0.000000410  0.499999795
     0.999999964  0.499999911  0.000000244
     0.246617562  0.778321215  0.800155382
     0.753382779  0.221678734  0.199844543
     0.198429578  0.070160934  0.125684400
     0.801570415  0.929839143  0.874315606
     0.683403310  0.579246853  0.658472405
     0.316596833  0.420753036  0.341527445
     0.996082285  0.900580345  0.717568692
     0.003917810  0.099420196  0.282431259
     0.497988864  0.634254034  0.826514340
     0.502011646  0.365745966  0.173485655
     0.156351322  0.255793226  0.949199774
     0.843649372  0.744206820  0.050800104
     0.698370610  0.387983424  0.569638919
     0.301630461  0.612016469  0.430360409
     0.189127916  0.581139666  0.885110632
     0.810872461  0.418860077  0.114889451
     0.224338666  0.877447047  0.021796261
     0.775661219  0.122553114  0.978203592
     0.100740849  0.459767174  0.250550287
     0.899259830  0.540231482  0.749449344
     0.305166429  0.933754289  0.619613547
     0.694833414  0.066245879  0.380386271
     0.651513514  0.758971438  0.475151132
     0.348486453  0.241028784  0.524848934
     0.600419707  0.984162914  0.754113374
     0.399580542  0.015837092  0.245886146

  ion indices of the primitive-cell ions
   primitive index   ion index
                 1           1
                 2           2
                 3           3
                 4           4
                 5           5
                 6           6
                 7           7
                 8           8
                 9           9
                10          10
                11          11
                12          12
                13          13
                14          14
                15          15
                16          16
                17          17
                18          18
                19          19
                20          20
                21          21
                22          22
                23          23
                24          24
                25          25
                26          26
                27          27
                28          28
                29          29
                30          30
                31          31
                32          32

 KPOINTS: K-points file

Automatic generation of k-mesh.
Space group operators:
 irot       det(A)        alpha          n_x          n_y          n_z        tau_x        tau_y        tau_z
    1     1.000000     0.000001     1.000000     0.000000     0.000000     0.000000     0.000000     0.000000

 Subroutine IBZKPT returns following result:

 Found     63 irreducible k-points:

 Following reciprocal coordinates:
            Coordinates               Weight
  0.000000  0.000000  0.000000      1.000000
  0.200000 -0.000000  0.000000      2.000000
  0.400000 -0.000000  0.000000      2.000000
 -0.000000  0.200000 -0.000000      2.000000
  0.200000  0.200000 -0.000000      2.000000
  0.400000  0.200000 -0.000000      2.000000
 -0.400000  0.200000  0.000000      2.000000
 -0.200000  0.200000  0.000000      2.000000
 -0.000000  0.400000  0.000000      2.000000
  0.200000  0.400000  0.000000      2.000000
  0.400000  0.400000  0.000000      2.000000
 -0.400000  0.400000 -0.000000      2.000000
 -0.200000  0.400000 -0.000000      2.000000
  0.000000  0.000000  0.200000      2.000000
  0.200000  0.000000  0.200000      2.000000
  0.400000 -0.000000  0.200000      2.000000
 -0.400000 -0.000000  0.200000      2.000000
 -0.200000  0.000000  0.200000      2.000000
  0.000000  0.200000  0.200000      2.000000
  0.200000  0.200000  0.200000      2.000000
  0.400000  0.200000  0.200000      2.000000
 -0.400000  0.200000  0.200000      2.000000
 -0.200000  0.200000  0.200000      2.000000
 -0.000000  0.400000  0.200000      2.000000
  0.200000  0.400000  0.200000      2.000000
  0.400000  0.400000  0.200000      2.000000
 -0.400000  0.400000  0.200000      2.000000
 -0.200000  0.400000  0.200000      2.000000
 -0.000000 -0.400000  0.200000      2.000000
  0.200000 -0.400000  0.200000      2.000000
  0.400000 -0.400000  0.200000      2.000000
 -0.400000 -0.400000  0.200000      2.000000
 -0.200000 -0.400000  0.200000      2.000000
  0.000000 -0.200000  0.200000      2.000000
  0.200000 -0.200000  0.200000      2.000000
  0.400000 -0.200000  0.200000      2.000000
 -0.400000 -0.200000  0.200000      2.000000
 -0.200000 -0.200000  0.200000      2.000000
  0.000000  0.000000  0.400000      2.000000
  0.200000  0.000000  0.400000      2.000000
  0.400000  0.000000  0.400000      2.000000
 -0.400000 -0.000000  0.400000      2.000000
 -0.200000  0.000000  0.400000      2.000000
 -0.000000  0.200000  0.400000      2.000000
  0.200000  0.200000  0.400000      2.000000
  0.400000  0.200000  0.400000      2.000000
 -0.400000  0.200000  0.400000      2.000000
 -0.200000  0.200000  0.400000      2.000000
 -0.000000  0.400000  0.400000      2.000000
  0.200000  0.400000  0.400000      2.000000
  0.400000  0.400000  0.400000      2.000000
 -0.400000  0.400000  0.400000      2.000000
 -0.200000  0.400000  0.400000      2.000000
 -0.000000 -0.400000  0.400000      2.000000
  0.200000 -0.400000  0.400000      2.000000
  0.400000 -0.400000  0.400000      2.000000
 -0.400000 -0.400000  0.400000      2.000000
 -0.200000 -0.400000  0.400000      2.000000
 -0.000000 -0.200000  0.400000      2.000000
  0.200000 -0.200000  0.400000      2.000000
  0.400000 -0.200000  0.400000      2.000000
 -0.400000 -0.200000  0.400000      2.000000
 -0.200000 -0.200000  0.400000      2.000000

 Following cartesian coordinates:
            Coordinates               Weight
  0.000000  0.000000  0.000000      1.000000
[...]
     32     -14.0660      1.00000
     33     -14.0007      1.00000
     34     -13.9516      1.00000
     35     -13.4154      1.00000
     36     -13.4011      1.00000
     37      -5.0812      1.00000
     38      -4.5802      1.00000
     39      -4.4834      1.00000
     40      -4.1057      1.00000
     41      -3.7458      1.00000
     42      -3.1789      1.00000
     43      -2.8825      1.00000
     44      -2.4897      1.00000
     45      -2.0568      1.00000
     46      -1.9989      1.00000
     47      -1.8022      1.00000
     48      -1.7743      1.00000
     49      -1.7475      1.00000
     50      -1.3088      1.00000
     51      -1.2844      1.00000
     52      -0.8890      1.00000
     53      -0.8872      1.00000
     54      -0.6789      1.00000
     55      -0.5498      1.00000
     56      -0.1653      1.00000
     57      -0.1590      1.00000
     58      -0.1411      1.00000
     59       0.0497      1.00000
     60       0.2109      1.00000
[...]
    103      11.7676      0.00000
    104      11.9593      0.00000
    105      12.0182      0.00000
    106      12.1327      0.00000
    107      12.1385      0.00000
    108      12.1978      0.00000
    109      12.2966      0.00000
    110      12.5583      0.00000
    111      12.5685      0.00000
    112      12.7669      0.00000
    113      12.8049      0.00000
    114      12.9597      0.00000
    115      13.1251      0.00000
    116      13.1303      0.00000
    117      13.3550      0.00000

[...]

 spin component 2

[...]

 k-point    63 :      -0.2000   -0.2000    0.4000
  band No.  band energies     occupation
      1     -35.4374      1.00000
      2     -35.4332      1.00000
      3     -35.1167      1.00000
      4     -35.1143      1.00000
      5     -17.1961      1.00000
      6     -17.0121      1.00000
      7     -16.7008      1.00000
      8     -16.6345      1.00000
      9     -16.4818      1.00000
     10     -16.1971      1.00000
     11     -16.1771      1.00000
     12     -16.0469      1.00000
     13     -15.8911      1.00000
     14     -15.8082      1.00000
     15     -15.6274      1.00000
     16     -15.5604      1.00000
     17     -15.4815      1.00000
     18     -15.4045      1.00000
     19     -15.3016      1.00000
     20     -15.2698      1.00000
     21     -15.1711      1.00000
     22     -15.0711      1.00000
     23     -14.9709      1.00000
     24     -14.9097      1.00000
     25     -14.8222      1.00000
     26     -14.7739      1.00000
     27     -14.6853      1.00000
     28     -14.6075      1.00000
     29     -14.4866      1.00000
     30     -14.4172      1.00000
     31     -14.2014      1.00000
     32     -14.0300      1.00000
     33     -13.9544      1.00000
     34     -13.8660      1.00000
     35     -13.4207      1.00000
     36     -13.3579      1.00000
     37      -5.2890      1.00000
     38      -4.9221      1.00000
     39      -4.5995      1.00000
     40      -3.8607      1.00000
     41      -3.3993      1.00000
     42      -3.0758      1.00000
     43      -2.7144      1.00000
     44      -2.4363      1.00000
     45      -2.1344      1.00000
     46      -2.0327      1.00000
     47      -1.8094      1.00000
     48      -1.7043      1.00000
     49      -1.3786      1.00000
     50      -1.2950      1.00000
     51      -1.2501      1.00000
     52      -1.1198      1.00000
     53      -0.8584      1.00000
     54      -0.8119      1.00000
     55      -0.5172      1.00000
     56      -0.4449      1.00000
     57      -0.2867      1.00000
     58      -0.1085      1.00000
     59       0.0068      1.00000
     60       0.1407      1.00000
[...]
    103      11.7103      0.00000
    104      11.7709      0.00000
    105      12.0143      0.00000
    106      12.0288      0.00000
    107      12.1909      0.00000
    108      12.2183      0.00000
    109      12.4299      0.00000
    110      12.4701      0.00000
    111      12.6935      0.00000
    112      12.7150      0.00000
    113      12.8640      0.00000
    114      12.9876      0.00000
    115      13.1213      0.00000
    116      13.1459      0.00000
    117      13.3459      0.00000

 soft charge-density along one line, spin component           1
         0         1         2         3         4         5         6         7         8         9
 total charge-density along one line

 soft charge-density along one line, spin component           2
         0         1         2         3         4         5         6         7         8         9
 total charge-density along one line

------------------------ aborting loop because EDIFF is reached ----------------------------------------

 total charge

# of ion       s       p       d       tot
    1        2.024   5.877   0.245   8.146
    2        2.024   5.877   0.245   8.146
    3        2.021   5.870   0.225   8.116
    4        2.021   5.870   0.225   8.116
    5        0.557   0.824   0.000   1.381
    6        0.555   0.812   0.000   1.367
    7        0.590   0.883   0.000   1.473
    8        0.590   0.883   0.000   1.473
    9        0.651   1.011   0.000   1.662
   10        0.651   1.011   0.000   1.662
   11        0.664   1.036   0.000   1.700
   12        0.664   1.036   0.000   1.700
   13        1.566   3.673   0.000   5.239
   14        1.566   3.673   0.000   5.239
   15        1.565   3.691   0.000   5.256
   16        1.565   3.691   0.000   5.256
   17        1.563   3.655   0.000   5.218
   18        1.563   3.655   0.000   5.218
   19        1.570   3.599   0.000   5.170
   20        1.570   3.599   0.000   5.170
   21        1.560   3.688   0.000   5.249
   22        1.560   3.688   0.000   5.249
   23        1.560   3.710   0.000   5.270
   24        1.560   3.710   0.000   5.270
   25        1.564   3.664   0.000   5.227
   26        1.564   3.664   0.000   5.227
   27        1.562   3.696   0.000   5.258
   28        1.562   3.696   0.000   5.258
   29        1.566   3.697   0.000   5.264
   30        1.566   3.697   0.000   5.264
   31        1.561   3.665   0.000   5.226
   32        1.561   3.665   0.000   5.226
tot         44.290 104.467   0.939 149.696

 magnetization (x)

[...]

  FORCE on cell =-STRESS in cart. coord.  units (eV):
  Direction    XX          YY          ZZ          XY          YZ          ZX
  Alpha Z   604.76932   604.76932   604.76932
  Ewald   -3398.38876 -3365.83731 -4044.12118  -172.39544    11.56482    19.46019
  Hartree  1198.12527  1200.22131   908.55104   -85.08246    36.76166    35.74138
  E(xc)    -942.97459  -943.27794  -942.51314    -0.33589     0.45761     0.41954
  Local    -738.23891  -767.59606   187.62469   252.55361   -54.16066   -61.01864
  n-local  -385.49379  -384.15058  -395.46202     5.35649    -5.00738    -3.27946
  augment   225.22548   224.73279   225.85833    -0.76108     1.38957     0.79613
  Kinetic  3437.01206  3431.16864  3455.29562     0.66680     8.94081     7.83189
  Fock        0.00000     0.00000     0.00000     0.00000     0.00000     0.00000
  Total       0.03608     0.03017     0.00267     0.00202    -0.05357    -0.04898
  in kB       0.17536     0.14664     0.01296     0.00980    -0.26036    -0.23805

 VOLUME and BASIS-vectors are now :
  energy-cutoff  :      520.00
  volume of cell :      329.64
      direct lattice vectors                 reciprocal lattice vectors
     7.212224119  0.001438276  0.654329449     0.138666300 -0.050178612 -0.000030972
     2.540500225  7.019864833  1.120092558    -0.000039315  0.142447930  0.000120227
    -0.000534328 -0.005495109  6.510585447    -0.013929532 -0.019463921  0.153578447

  length of vectors
     7.241845472  7.548990065  6.510587788     0.147466054  0.142447986  0.155432350

 FORCES acting on ions
    electron-ion (+dipol)            ewald-force                    non-local-force                 convergence-correction
   0.325E+01 0.414E+02 0.820E+01   -.373E+01 -.403E+02 -.887E+01   0.479E+00 -.110E+01 0.678E+00   -.201E-04 -.850E-04 -.452E-04
   -.325E+01 -.414E+02 -.820E+01   0.373E+01 0.403E+02 0.887E+01   -.479E+00 0.110E+01 -.678E+00   0.228E-04 0.910E-04 0.492E-04
   0.295E+02 -.549E+02 -.583E+01   -.296E+02 0.538E+02 0.495E+01   0.790E-01 0.114E+01 0.889E+00   -.681E-04 0.119E-03 0.106E-03
   -.295E+02 0.549E+02 0.583E+01   0.296E+02 -.538E+02 -.495E+01   -.790E-01 -.114E+01 -.889E+00   0.699E-04 -.115E-03 -.112E-03
   0.180E-03 0.216E-03 0.295E-04   -.302E-03 -.121E-03 -.693E-04   0.120E-03 -.893E-04 0.377E-04   -.456E-06 -.717E-06 -.455E-06
   -.130E-03 -.984E-03 0.243E-03   0.110E-03 0.909E-03 -.115E-03   0.171E-04 0.743E-04 -.122E-03   0.107E-06 0.482E-07 0.307E-06
   0.978E+01 0.858E+01 0.245E+02   -.844E+01 -.659E+01 -.218E+02   -.128E+01 -.193E+01 -.268E+01   -.218E-04 -.255E-04 -.378E-04
   -.978E+01 -.858E+01 -.245E+02   0.844E+01 0.659E+01 0.218E+02   0.128E+01 0.193E+01 0.268E+01   0.227E-04 0.248E-04 0.378E-04
   -.133E+02 -.251E+01 0.905E+01   0.131E+02 0.327E+01 -.754E+01   0.246E+00 -.686E+00 -.143E+01   0.213E-04 -.273E-04 -.214E-04
   0.133E+02 0.251E+01 -.905E+01   -.131E+02 -.327E+01 0.754E+01   -.246E+00 0.686E+00 0.143E+01   -.203E-04 0.269E-04 0.221E-04
   -.115E+02 0.155E+01 0.111E+01   0.103E+02 -.525E+01 -.356E+01   0.114E+01 0.351E+01 0.234E+01   -.800E-05 -.906E-04 -.817E-04
   0.115E+02 -.155E+01 -.111E+01   -.103E+02 0.525E+01 0.356E+01   -.114E+01 -.351E+01 -.234E+01   0.676E-05 0.916E-04 0.816E-04
   0.148E+02 -.868E+01 0.371E+02   -.622E+01 0.122E+02 -.569E+02   -.856E+01 -.356E+01 0.197E+02   0.345E-04 0.141E-03 -.254E-03
   -.148E+02 0.868E+01 -.371E+02   0.622E+01 -.122E+02 0.569E+02   0.856E+01 0.356E+01 -.197E+02   -.347E-04 -.141E-03 0.255E-03
   -.215E+02 -.300E+01 -.202E+02   0.168E+02 -.309E+00 0.388E+02   0.472E+01 0.331E+01 -.187E+02   -.632E-04 -.157E-03 0.230E-03
   0.215E+02 0.300E+01 0.202E+02   -.168E+02 0.309E+00 -.388E+02   -.472E+01 -.331E+01 0.187E+02   0.597E-04 0.157E-03 -.230E-03
   -.134E+02 0.315E+02 0.413E+02   0.189E+02 -.231E+02 -.607E+02   -.546E+01 -.838E+01 0.193E+02   0.165E-03 -.437E-04 -.325E-03
   0.134E+02 -.315E+02 -.413E+02   -.189E+02 0.231E+02 0.607E+02   0.546E+01 0.838E+01 -.193E+02   -.163E-03 0.443E-04 0.325E-03
   0.722E+01 0.429E+02 0.611E+02   -.160E+02 -.659E+02 -.780E+02   0.881E+01 0.231E+02 0.169E+02   -.281E-04 -.275E-03 -.655E-04
   -.722E+01 -.429E+02 -.611E+02   0.160E+02 0.659E+02 0.780E+02   -.881E+01 -.231E+02 -.169E+02   0.291E-04 0.278E-03 0.671E-04
   0.515E+01 -.102E+01 0.181E+02   -.934E+00 -.107E+02 -.188E+02   -.421E+01 0.117E+02 0.689E+00   0.152E-03 -.156E-03 -.810E-04
   -.515E+01 0.102E+01 -.181E+02   0.934E+00 0.107E+02 0.188E+02   0.421E+01 -.117E+02 -.689E+00   -.150E-03 0.156E-03 0.811E-04
   0.233E+02 0.109E+01 -.258E+02   -.289E+02 -.136E+02 0.325E+02   0.563E+01 0.125E+02 -.670E+01   0.122E-04 -.130E-03 0.159E-03
   -.233E+02 -.109E+01 0.258E+02   0.289E+02 0.136E+02 -.325E+02   -.563E+01 -.125E+02 0.670E+01   -.118E-04 0.128E-03 -.160E-03
   0.434E+02 0.438E+01 -.524E+02   -.624E+02 -.395E+01 0.570E+02   0.191E+02 -.428E+00 -.462E+01   -.148E-03 0.118E-03 0.229E-03
   -.434E+02 -.438E+01 0.524E+02   0.624E+02 0.395E+01 -.570E+02   -.191E+02 0.428E+00 0.462E+01   0.149E-03 -.116E-03 -.228E-03
   0.193E+02 0.109E+02 0.171E+02   -.256E+02 -.158E+01 -.258E+02   0.637E+01 -.933E+01 0.877E+01   -.140E-03 0.119E-03 -.486E-04
   -.193E+02 -.109E+02 -.171E+02   0.256E+02 0.158E+01 0.258E+02   -.637E+01 0.933E+01 -.877E+01   0.141E-03 -.120E-03 0.485E-04
   -.215E+02 0.374E+02 0.297E+02   0.285E+02 -.324E+02 -.476E+02   -.703E+01 -.494E+01 0.179E+02   0.167E-03 -.101E-03 -.366E-03
   0.215E+02 -.374E+02 -.297E+02   -.285E+02 0.324E+02 0.476E+02   0.703E+01 0.494E+01 -.179E+02   -.168E-03 0.102E-03 0.367E-03
   0.308E+02 0.145E+02 -.542E+02   -.499E+02 -.104E+02 0.536E+02   0.192E+02 -.407E+01 0.662E+00   -.125E-03 0.151E-03 0.163E-03
   -.308E+02 -.145E+02 0.542E+02   0.499E+02 0.104E+02 -.536E+02   -.192E+02 0.407E+01 -.662E+00   0.122E-03 -.153E-03 -.162E-03
   -.124E-02 -.181E-02 0.135E-02   0.213E-13 -.711E-13 0.711E-13   0.123E-02 0.181E-02 -.135E-02   0.533E-05 0.110E-04 0.222E-05

 POSITION                                       TOTAL-FORCE (eV/Angst)
      4.11693      2.23983      5.98571         0.004462     -0.000670      0.009115
      5.63525      4.77598      2.29930        -0.004456      0.000675     -0.009114
      0.75048      1.50240      4.24108        -0.005097     -0.006905      0.007742
      9.00169      5.51341      4.04394         0.005116      0.006880     -0.007742
      3.60584     -0.00203      3.58246         0.000005     -0.000001     -0.000000
      8.48247      3.51137      1.21438         0.000001      0.000002      0.000000
      3.75556      5.45967      6.24264         0.001750     -0.010329     -0.000490
      5.99663      1.55614      2.04237        -0.001753      0.010327      0.000489
      1.60930      0.49212      1.02670        -0.008168      0.007498      0.006770
      8.14289      6.52369      7.25830         0.008165     -0.007490     -0.006765
      6.40008      4.06360      5.38302         0.005851     -0.023772     -0.004000
      3.35211      2.95221      2.90198        -0.005857      0.023771      0.004004
      9.47151      6.31944      6.33229        -0.006680     -0.007058     -0.007932
      0.28068      0.69637      1.95272         0.006680      0.007055      0.007931
      5.20249      4.44855      6.41736        -0.000257     -0.000035     -0.006959
      4.54971      2.56726      1.86764         0.000252      0.000036      0.006963
      1.77698      1.79064      6.56866         0.009078     -0.000293     -0.004826
      7.97522      5.22517      1.71634        -0.009082      0.000296      0.004829
      6.02217      2.72147      4.60022         0.001471      0.003979     -0.007680
      3.73002      4.29434      3.68478        -0.001489     -0.003974      0.007674
      2.83995      4.07493      6.53727         0.012091      0.019780     -0.008058
      6.91225      2.94088      1.74774        -0.012085     -0.019775      0.008049
      3.84712      6.15976      1.27152        -0.000964     -0.010373     -0.005368
      5.90507      0.85605      7.01349         0.000971      0.010369      0.005363
      1.89447      3.22627      2.21213         0.018356     -0.000607      0.010336
      7.85772      3.78953      6.07288        -0.018353      0.000620     -0.010341
      4.57280      6.55186      5.27962         0.010637     -0.005957      0.002227
      5.17939      0.46395      3.00539        -0.010638      0.005955     -0.002228
      6.62677      5.32620      4.36993        -0.000774      0.002742     -0.004435
      3.12542      1.68961      3.91507         0.000765     -0.002744      0.004433
      6.83022      6.90541      6.40495        -0.007905      0.005587     -0.000731
      2.92197      0.11040      1.88006         0.007908     -0.005589      0.000743
    total drift:                               -0.000013      0.000016      0.000000

  FREE ENERGIE OF THE ION-ELECTRON SYSTEM (eV)
  free  energy   TOTEN  =      -343.87105926 eV

  energy  without entropy=     -343.87105926  energy(sigma->0) =     -343.87105926

 reached required accuracy - stopping structural energy minimisation

 total charge

[...]

 magnetization (x)

# of ion       s       p       d       tot
    1       -0.000  -0.000  -0.000  -0.000
    2       -0.000   0.000  -0.000  -0.000
    3       -0.000  -0.000  -0.000  -0.000
    4       -0.000  -0.000  -0.000  -0.000
    5        0.000   0.000   0.000   0.000
    6        0.000   0.000   0.000   0.000
    7        0.000   0.000   0.000   0.000
    8        0.000   0.000   0.000   0.000
    9        0.000   0.000   0.000   0.000
   10        0.000   0.000   0.000   0.000
   11        0.000   0.000   0.000   0.000
   12        0.000   0.000   0.000   0.000
   13        0.000  -0.000   0.000  -0.000
   14        0.000  -0.000   0.000  -0.000
   15        0.000  -0.000   0.000  -0.000
   16        0.000   0.000   0.000   0.000
   17        0.000  -0.000   0.000  -0.000
   18       -0.000  -0.000   0.000  -0.000
   19       -0.000   0.000   0.000   0.000
   20       -0.000  -0.000   0.000  -0.000
   21        0.000   0.000   0.000   0.000
   22        0.000   0.000   0.000   0.000
   23        0.000  -0.000   0.000  -0.000
   24       -0.000   0.000   0.000   0.000
   25       -0.000  -0.000   0.000  -0.000
   26        0.000  -0.000   0.000  -0.000
   27        0.000   0.000   0.000   0.000
   28        0.000   0.000   0.000   0.000
   29       -0.000   0.000   0.000   0.000
   30       -0.000   0.000   0.000   0.000
   31        0.000  -0.000   0.000  -0.000
   32        0.000  -0.000   0.000  -0.000
tot         -0.000  -0.000  -0.000  -0.000