 vasp.6.1.2 22Jul20 (build Mar 19 2021 09:51:12) complex

 executed on             LinuxIFC date 2021.06.21  16:42:40

 INCAR:
 POTCAR:    PAW_PBE Ca_sv 06Sep2000
 POTCAR:    PAW_PBE Mn_pv 02Aug2007
 POTCAR:    PAW_PBE O 08Apr2002
 POTCAR:    PAW_PBE Ca_sv 06Sep2000
   VRHFIN =Ca: 3s3p4s

   TITEL  = PAW_PBE Ca_sv 06Sep2000
   POMASS =   40.078; ZVAL   =   10.000    mass and valenz
   ENMAX  =  266.622; ENMIN  =  199.967 eV

 POTCAR:    PAW_PBE Mn_pv 02Aug2007
   VRHFIN =Mn: 3p4s3d

   TITEL  = PAW_PBE Mn_pv 02Aug2007
   POMASS =   54.938; ZVAL   =   13.000    mass and valenz
   ENMAX  =  269.864; ENMIN  =  202.398 eV

 POTCAR:    PAW_PBE O 08Apr2002
   VRHFIN =O: s2p4

   TITEL  = PAW_PBE O 08Apr2002
   POMASS =   16.000; ZVAL   =    6.000    mass and valenz
   ENMAX  =  400.000; ENMIN  =  300.000 eV

 Optimization of the real space projectors (new method)

 maximal supplied QI-value         = 16.25
 optimisation between [QCUT,QGAM] = [ 11.54, 23.24] = [ 37.28,151.24] Ry
 Optimized for a Real-space Cutoff    1.58 Angstroem

   l    n(q)    QCUT    max X(q) W(low)/X(q) W(high)/X(q)  e(spline)
   0     11    11.539    11.817    0.25E-04    0.22E-05    0.26E-07
   0     11    11.539     8.461    0.39E-04    0.49E-05    0.55E-07
   1     11    11.539     3.957    0.21E-05    0.44E-05    0.32E-07
   1     11    11.539     4.314    0.56E-04    0.44E-04    0.19E-06
   2     10    11.539    14.565    0.25E-03    0.21E-04    0.75E-06
   2     10    11.539    14.552    0.23E-03    0.22E-04    0.72E-06
 Optimization of the real space projectors (new method)

[...]

   l    n(q)    QCUT    max X(q) W(low)/X(q) W(high)/X(q)  e(spline)
   1     10    11.539     3.658    0.56E-04    0.12E-03    0.13E-06
   1     10    11.539     5.612    0.11E-03    0.23E-03    0.24E-06
   2      9    11.539    55.373    0.45E-04    0.92E-04    0.22E-06
   2      9    11.539    50.863    0.47E-04    0.95E-04    0.22E-06
   0     10    11.539    79.536    0.46E-04    0.27E-04    0.11E-06
   0     10    11.539    38.668    0.38E-04    0.25E-04    0.10E-06
 Optimization of the real space projectors (new method)

 maximal supplied QI-value         = 24.76
 optimisation between [QCUT,QGAM] = [ 11.64, 23.27] = [ 37.91,151.63] Ry
 Optimized for a Real-space Cutoff    1.14 Angstroem

   l    n(q)    QCUT    max X(q) W(low)/X(q) W(high)/X(q)  e(spline)
   0      8    11.635    20.381    0.10E-03    0.33E-03    0.24E-06
   0      8    11.635    15.268    0.11E-03    0.35E-03    0.26E-06
   1      7    11.635     5.964    0.24E-03    0.31E-03    0.30E-06
   1      7    11.635     5.382    0.22E-03    0.25E-03    0.26E-06
  PAW_PBE Ca_sv 06Sep2000               :
  PAW_PBE Mn_pv 02Aug2007               :
  PAW_PBE O 08Apr2002                   :

 POSCAR: Ca1 Mn7 O12
  positions in direct lattice
  velocities in cartesian coordinates

 METAGGA = SCAN     LMAXTAU =  6    LMIXTAU =  F

 ion  position               nearest neighbor table
   1  0.000  1.000  1.000-
   2  0.500  0.500  0.000-  18 1.93  15 1.93  12 1.93   9 1.93
   3  1.000  0.500  0.500-  19 1.93  16 1.93  13 1.93  10 1.93
   4  0.500  1.000  0.500-  20 1.93  17 1.93  14 1.93  11 1.93
   5  1.000  0.500  0.000-   9 1.90  12 1.90  13 2.04  10 2.04  20 2.04  17 2.04
   6  0.500  0.500  0.500-  10 1.90  13 1.90  14 2.04  11 2.04  18 2.04  15 2.04
   7  1.000  1.000  0.500-  11 1.90  14 1.90  12 2.04   9 2.04  19 2.04  16 2.04
   8  0.500  0.000  0.000-  20 1.92  18 1.92  19 1.92  15 1.92  17 1.92  16 1.92
   9  0.869  0.677  0.173-   5 1.90   2 1.93   7 2.04
  10  0.192  0.496  0.323-   6 1.90   3 1.93   5 2.04
  11  0.697  0.827  0.505-   7 1.90   4 1.93   6 2.04
  12  0.131  0.323  0.827-   5 1.90   2 1.93   7 2.04
  13  0.808  0.504  0.677-   6 1.90   3 1.93   5 2.04
  14  0.303  0.173  0.495-   7 1.90   4 1.93   6 2.04
  15  0.480  0.298  0.164-   8 1.92   2 1.93   6 2.04
  16  0.182  0.866  0.702-   8 1.92   3 1.93   7 2.04
  17  0.316  0.836  0.134-   8 1.92   4 1.93   5 2.04
  18  0.520  0.702  0.836-   8 1.92   2 1.93   6 2.04
  19  0.818  0.134  0.298-   8 1.92   3 1.93   7 2.04
  20  0.684  0.164  0.866-   8 1.92   4 1.93   5 2.04

IMPORTANT INFORMATION: All symmetrisations will be switched off!
NOSYMM: (Re-)initialisation of all symmetry stuff for point group C_1.

                                     Primitive cell

  volume of cell :     202.2592

  direct lattice vectors                    reciprocal lattice vectors
     0.000013978 -0.000008631  6.359362947     0.095264163  0.055009292  0.157248321
     5.248324645 -3.029425130 -2.119772866     0.190543249  0.000011130 -0.000000419
    -0.000358635  6.060220171 -2.119795333     0.095250224  0.165016148  0.000000015

  length of vectors
     6.359362947  6.419950561  6.420264862     0.191907054  0.190543249  0.190533289

  position of ions in fractional coordinates (direct lattice)
     0.000026685  0.999997874  0.999999846
     0.499965067  0.500029259  0.000010592
     0.999934013  0.499983802  0.499968948
     0.499958004  0.999992258  0.500015953
     0.999971537  0.500035193  0.000014976
     0.499934542  0.499975745  0.499963534
     0.999959039  0.999984439  0.500022873
     0.500258254  0.000003195  0.000005965
     0.869362395  0.677331384  0.172845195
     0.192021140  0.495509279  0.322656416
     0.696516969  0.827151097  0.504506142
     0.130611212  0.322684342  0.827170577
     0.807935372  0.504483659  0.677318637
     0.303441212  0.172834895  0.495497772
     0.480050010  0.297898473  0.163979392
     0.182148866  0.866077308  0.702102120
     0.316077134  0.836034648  0.133942698
     0.519964365  0.702056916  0.835993086
     0.817910849  0.133937622  0.297941598
     0.683953334  0.163998611  0.866043682

  ion indices of the primitive-cell ions
   primitive index   ion index
                 1           1
                 2           2
                 3           3
                 4           4
                 5           5
                 6           6
                 7           7
                 8           8
                 9           9
                10          10
                11          11
                12          12
                13          13
                14          14
                15          15
                16          16
                17          17
                18          18
                19          19
                20          20

 KPOINTS: K-points file

Automatic generation of k-mesh.
Space group operators:
 irot       det(A)        alpha          n_x          n_y          n_z        tau_x        tau_y        tau_z
    1     1.000000     0.000001     1.000000     0.000000     0.000000     0.000000     0.000000     0.000000

 Subroutine IBZKPT returns following result:

 Found    128 irreducible k-points:

 Following reciprocal coordinates:
            Coordinates               Weight
  0.000000  0.000000  0.000000      1.000000
  0.166667 -0.000000 -0.000000      2.000000
  0.333333 -0.000000 -0.000000      2.000000
  0.500000 -0.000000 -0.000000      1.000000
  0.000000  0.166667 -0.000000      2.000000
  0.166667  0.166667  0.000000      2.000000
  0.333333  0.166667  0.000000      2.000000
  0.500000  0.166667  0.000000      2.000000
 -0.333333  0.166667 -0.000000      2.000000
 -0.166667  0.166667 -0.000000      2.000000
  0.000000  0.333333  0.000000      2.000000
  0.166667  0.333333  0.000000      2.000000
  0.333333  0.333333 -0.000000      2.000000
  0.500000  0.333333 -0.000000      2.000000
 -0.333333  0.333333 -0.000000      2.000000
 -0.166667  0.333333 -0.000000      2.000000
  0.000000  0.500000 -0.000000      1.000000
  0.166667  0.500000 -0.000000      2.000000
  0.333333  0.500000 -0.000000      2.000000
  0.500000  0.500000  0.000000      1.000000
  0.000000 -0.000000  0.142857      2.000000
  0.166667 -0.000000  0.142857      2.000000
  0.333333 -0.000000  0.142857      2.000000
  0.500000 -0.000000  0.142857      2.000000
 -0.333333 -0.000000  0.142857      2.000000
 -0.166667  0.000000  0.142857      2.000000
  0.000000  0.166667  0.142857      2.000000
  0.166667  0.166667  0.142857      2.000000
  0.333333  0.166667  0.142857      2.000000
  0.500000  0.166667  0.142857      2.000000
 -0.333333  0.166667  0.142857      2.000000
 -0.166667  0.166667  0.142857      2.000000
  0.000000  0.333333  0.142857      2.000000
  0.166667  0.333333  0.142857      2.000000
  0.333333  0.333333  0.142857      2.000000
  0.500000  0.333333  0.142857      2.000000
 -0.333333  0.333333  0.142857      2.000000
 -0.166667  0.333333  0.142857      2.000000
 -0.000000  0.500000  0.142857      2.000000
  0.166667  0.500000  0.142857      2.000000
  0.333333  0.500000  0.142857      2.000000
  0.500000  0.500000  0.142857      2.000000
 -0.333333  0.500000  0.142857      2.000000
 -0.166667  0.500000  0.142857      2.000000
 -0.000000 -0.333333  0.142857      2.000000
  0.166667 -0.333333  0.142857      2.000000
  0.333333 -0.333333  0.142857      2.000000
  0.500000 -0.333333  0.142857      2.000000
 -0.333333 -0.333333  0.142857      2.000000
 -0.166667 -0.333333  0.142857      2.000000
  0.000000 -0.166667  0.142857      2.000000
  0.166667 -0.166667  0.142857      2.000000
  0.333333 -0.166667  0.142857      2.000000
  0.500000 -0.166667  0.142857      2.000000
 -0.333333 -0.166667  0.142857      2.000000
 -0.166667 -0.166667  0.142857      2.000000
  0.000000 -0.000000  0.285714      2.000000
  0.166667 -0.000000  0.285714      2.000000
  0.333333 -0.000000  0.285714      2.000000
  0.500000 -0.000000  0.285714      2.000000
[...]
  0.500000  0.500000  0.428571      2.000000
 -0.333333  0.500000  0.428571      2.000000
 -0.166667  0.500000  0.428571      2.000000
 -0.000000 -0.333333  0.428571      2.000000
  0.166667 -0.333333  0.428571      2.000000
  0.333333 -0.333333  0.428571      2.000000
  0.500000 -0.333333  0.428571      2.000000
 -0.333333 -0.333333  0.428571      2.000000
 -0.166667 -0.333333  0.428571      2.000000
  0.000000 -0.166667  0.428571      2.000000
  0.166667 -0.166667  0.428571      2.000000
  0.333333 -0.166667  0.428571      2.000000
  0.500000 -0.166667  0.428571      2.000000
 -0.333333 -0.166667  0.428571      2.000000
 -0.166667 -0.166667  0.428571      2.000000

 Following cartesian coordinates:
            Coordinates               Weight
  0.000000  0.000000  0.000000      1.000000
  0.015877  0.009168  0.026208      2.000000
  0.031755  0.018336  0.052416      2.000000
  0.047632  0.027505  0.078624      1.000000
  0.031757  0.000002 -0.000000      2.000000
  0.047635  0.009170  0.026208      2.000000
  0.063512  0.018338  0.052416      2.000000
  0.079389  0.027507  0.078624      2.000000
  0.000002 -0.018335 -0.052416      2.000000
  0.015880 -0.009166 -0.026208      2.000000
  0.063514  0.000004 -0.000000      2.000000
  0.079392  0.009172  0.026208      2.000000
  0.095269  0.018340  0.052416      2.000000
  0.111146  0.027508  0.078624      2.000000
  0.031760 -0.018333 -0.052416      2.000000
  0.047637 -0.009165 -0.026208      2.000000
  0.095272  0.000006 -0.000000      1.000000
  0.111149  0.009174  0.026208      2.000000
  0.127026  0.018342  0.052416      2.000000
[...]
  o =  0.5490  v = -0.5847 -0.8041  0.0000  0.1061 -0.0146  0.0000  0.0000  0.0000  0.0000  0.0000      0.0000  0.0000  0.0000  0.0000  0.0000  0.0000  0.0000  0.0000  0.0000  0.0000
  o =  0.5490  v =  0.0145  0.1062  0.0000  0.8041 -0.5848  0.0000  0.0000  0.0000  0.0000  0.0000      0.0000  0.0000  0.0000  0.0000  0.0000  0.0000  0.0000  0.0000  0.0000  0.0000
  o =  0.9640  v = -0.3889  0.2245 -0.0000 -0.5402 -0.7117  0.0000  0.0000  0.0000  0.0000  0.0000      0.0000  0.0000  0.0000  0.0000  0.0000  0.0000  0.0000  0.0000  0.0000  0.0000
  o =  0.9640  v = -0.7117  0.5401  0.0003  0.2244  0.3890  0.0000  0.0000  0.0000  0.0000  0.0000      0.0000  0.0000  0.0000  0.0000  0.0000  0.0000  0.0000  0.0000  0.0000  0.0000
  o =  0.9704  v = -0.0002  0.0001 -1.0000  0.0001  0.0001  0.0000  0.0000  0.0000  0.0000  0.0000      0.0000  0.0000  0.0000  0.0000  0.0000  0.0000  0.0000  0.0000  0.0000  0.0000

 eigenvalue-minimisations  : 33633
 total energy-change (2. order) :-0.2342556E-05  (-0.1917979E-06)
 number of electron     172.9999918 magnetization      26.9999984
 augmentation part       61.1206148 magnetization      19.0469387

 Free energy of the ion-electron system (eV)
  alpha Z        PSCENC =       901.67458051
  Ewald energy   TEWEN  =    -14832.99562196
  -Hartree energ DENC   =     -5035.19027637
  -exchange      EXHF   =         0.00000000
  -V(xc)+E(xc)   XCENC  =      1029.06172080
  PAW double counting   =     21835.81238066   -22296.30966425
  entropy T*S    EENTRO =        -0.00000590
  eigenvalues    EBANDS =     -2222.83591187
  atomic energy  EATOM  =     20371.20887069
  Solvation  Ediel_sol  =         0.00000000
  free energy    TOTEN  =      -249.57392770 eV

  energy without entropy =     -249.57392180  energy(sigma->0) =     -249.57392475

 average (electrostatic) potential at core
  the test charge radii are     1.1137  0.9577  0.7215
  (the norm of the test charge is              1.0000)
       1 -46.5669       2 -75.1795       3 -75.1796       4 -75.1797       5 -74.8270
       6 -74.8271       7 -74.8272       8 -75.8546       9 -73.0344      10 -73.0344
      11 -73.0347      12 -73.0337      13 -73.0338      14 -73.0340      15 -72.9986
      16 -72.9987      17 -72.9987      18 -73.0042      19 -73.0044      20 -73.0043

 E-fermi :   5.7255     XC(G=0): -12.6421     alpha+bet :-13.0533

[...]

 k-point     1 :       0.0000    0.0000    0.0000
  band No.  band energies     occupation
      1     -47.7868      1.00000
      2     -47.7867      1.00000
      3     -47.7712      1.00000
      4     -47.7669      1.00000
      5     -47.7669      1.00000
      6     -47.7606      1.00000
      7     -47.4752      1.00000
      8     -47.4751      1.00000
      9     -47.4750      1.00000
     10     -47.4692      1.00000
     11     -47.4687      1.00000
     12     -47.4687      1.00000
     13     -47.2566      1.00000
     14     -47.2545      1.00000
     15     -47.2544      1.00000
     16     -47.2366      1.00000
     17     -47.2365      1.00000
     18     -47.2359      1.00000
     19     -47.0546      1.00000
     20     -47.0544      1.00000
     21     -47.0525      1.00000
     22     -35.4898      1.00000
     23     -15.7442      1.00000
     24     -15.7289      1.00000
     25     -15.7289      1.00000
     26     -14.9562      1.00000
     27     -13.7584      1.00000
     28     -13.7582      1.00000
     29     -13.7364      1.00000
     30     -13.5594      1.00000
     31     -13.5594      1.00000
     32     -13.3976      1.00000
     33     -13.3421      1.00000
     34     -13.3420      1.00000
     35     -13.1958      1.00000
     36     -13.1956      1.00000
     37     -13.1493      1.00000
     38      -2.2186      1.00000
     39      -2.2185      1.00000
     40      -2.0663      1.00000
     41      -1.8024      1.00000
     42      -1.8023      1.00000
     43      -1.6567      1.00000
     44      -1.2574      1.00000
     45      -1.2573      1.00000
     46      -1.1733      1.00000
     47      -0.6671      1.00000
     48      -0.6670      1.00000
     49      -0.6189      1.00000
     50      -0.3637      1.00000
     51      -0.1925      1.00000
     52      -0.1924      1.00000
     53       0.1046      1.00000
     54       0.2865      1.00000
     55       0.2912      1.00000
     56       0.2913      1.00000
     57       0.3331      1.00000
     58       0.3332      1.00000
     59       0.7581      1.00000
     60       0.7640      1.00000
[...]
    103       7.7448      0.00000
    104       7.8383      0.00000
    105       7.8385      0.00000
    106       8.3971      0.00000
    107       8.3973      0.00000
    108       8.6912      0.00000
    109      10.8926      0.00000
    110      12.3947      0.00000
    111      12.3949      0.00000
    112      12.6524      0.00000
    113      12.6525      0.00000
    114      12.6956      0.00000
    115      13.8673      0.00000
    116      13.8676      0.00000
    117      13.8915      0.00000

[...]

 spin component 2

[...]

 k-point   128 :      -0.1667   -0.1667    0.4286
  band No.  band energies     occupation
      1     -43.2927      1.00000
      2     -43.2924      1.00000
      3     -43.2748      1.00000
      4     -42.4849      1.00000
      5     -42.4847      1.00000
      6     -42.4839      1.00000
      7     -42.2832      1.00000
      8     -42.2828      1.00000
      9     -42.2827      1.00000
     10     -42.2656      1.00000
     11     -42.2650      1.00000
     12     -42.2642      1.00000
     13     -41.5943      1.00000
     14     -41.5926      1.00000
     15     -41.5923      1.00000
     16     -41.4631      1.00000
     17     -41.4622      1.00000
     18     -41.4618      1.00000
     19     -41.4332      1.00000
     20     -41.4331      1.00000
     21     -41.4328      1.00000
     22     -35.4664      1.00000
     23     -15.7573      1.00000
     24     -15.7312      1.00000
     25     -15.7102      1.00000
     26     -14.5226      1.00000
     27     -13.8437      1.00000
     28     -13.7887      1.00000
     29     -13.6508      1.00000
     30     -13.5354      1.00000
     31     -13.4295      1.00000
     32     -13.3486      1.00000
     33     -13.2991      1.00000
     34     -13.2827      1.00000
     35     -13.1814      1.00000
     36     -13.1337      1.00000
     37     -13.1237      1.00000
     38      -0.6818      1.00000
     39      -0.6627      1.00000
     40      -0.4453      1.00000
     41      -0.2154      1.00000
     42      -0.1363      1.00000
     43      -0.0681      1.00000
     44       0.2245      1.00000
     45       0.2394      1.00000
     46       0.4387      1.00000
     47       0.5233      1.00000
     48       0.6174      1.00000
     49       0.6334      1.00000
     50       0.8150      1.00000
     51       0.9738      1.00000
     52       1.1745      1.00000
     53       1.3107      1.00000
     54       1.4852      1.00000
     55       1.5488      1.00000
     56       1.6224      1.00000
     57       1.7259      1.00000
     58       1.8286      1.00000
     59       2.0794      1.00000
     60       2.1178      1.00000
[...]
    103      10.8197      0.00000
    104      10.9140      0.00000
    105      10.9329      0.00000
    106      11.1759      0.00000
    107      11.2929      0.00000
    108      11.4109      0.00000
    109      12.4214      0.00000
    110      12.5293      0.00000
    111      12.6736      0.00000
    112      12.7729      0.00000
    113      12.8420      0.00000
    114      13.4053      0.00000
    115      15.1322      0.00000
    116      15.2082      0.00000
    117      15.6385      0.00000

 soft charge-density along one line, spin component           1
         0         1         2         3         4         5         6         7         8         9
 total charge-density along one line

 soft charge-density along one line, spin component           2
         0         1         2         3         4         5         6         7         8         9
 total charge-density along one line

------------------------ aborting loop because EDIFF is reached ----------------------------------------

 total charge

# of ion       s       p       d       tot
    1        2.014   5.857   0.202   8.073
    2        0.321   6.314   4.782  11.417
    3        0.321   6.314   4.782  11.417
    4        0.321   6.314   4.782  11.417
    5        0.315   6.346   4.806  11.467
    6        0.315   6.346   4.806  11.467
    7        0.315   6.346   4.806  11.467
    8        0.371   6.444   4.773  11.589
    9        1.572   3.521   0.000   5.093
   10        1.572   3.521   0.000   5.093
   11        1.572   3.521   0.000   5.093
   12        1.572   3.521   0.000   5.092
   13        1.572   3.521   0.000   5.092
   14        1.572   3.521   0.000   5.093
   15        1.573   3.513   0.000   5.087
   16        1.573   3.513   0.000   5.087
   17        1.573   3.513   0.000   5.087
   18        1.574   3.514   0.000   5.087
   19        1.574   3.514   0.000   5.087
   20        1.574   3.514   0.000   5.087
tot         23.168  92.485  33.740 149.393

 magnetization (x)

[...]

  FORCE on cell =-STRESS in cart. coord.  units (eV):
  Direction    XX          YY          ZZ          XY          YZ          ZX
  Alpha Z   901.67458   901.67458   901.67458
  Ewald   -5043.57240 -5043.55870 -4745.90495    -0.09994    -0.02077    -0.03084
  Hartree  1634.31639  1634.31931  1766.54305    -0.05968    -0.01631    -0.01646
  E(xc)   -1031.48475 -1031.48428 -1031.68012    -0.00092    -0.00048    -0.00059
  Local     551.48407   551.46961   144.37580     0.15670     0.03927     0.04798
  n-local  -538.95395  -538.95399  -531.12536    -0.00243    -0.00033    -0.00027
  augment   859.18268   859.18415   845.92272     0.00771    -0.00061     0.00007
  Kinetic  2667.32920  2667.31886  2650.30089    -0.00423    -0.00183    -0.00118
  Fock        0.00000     0.00000     0.00000     0.00000     0.00000     0.00000
  Total      -0.02418    -0.03047     0.10660    -0.00279    -0.00106    -0.00128
  in kB      -0.19151    -0.24135     0.84444    -0.02208    -0.00842    -0.01016

 VOLUME and BASIS-vectors are now :
  energy-cutoff  :      520.00
  volume of cell :      202.26
      direct lattice vectors                 reciprocal lattice vectors
     0.000013978 -0.000008631  6.359362947     0.095264163  0.055009292  0.157248321
     5.248324645 -3.029425130 -2.119772866     0.190543249  0.000011130 -0.000000419
    -0.000358635  6.060220171 -2.119795333     0.095250224  0.165016148  0.000000015

  length of vectors
     6.359362947  6.419950561  6.420264862     0.191907054  0.190543249  0.190533289

 FORCES acting on ions
    electron-ion (+dipol)            ewald-force                    non-local-force                 convergence-correction
   -.927E-03 0.918E-02 -.257E+00   0.924E-03 -.901E-02 0.276E+00   0.114E-03 -.251E-03 -.132E-01   -.255E-05 0.106E-05 0.989E-05
   0.186E+00 -.153E+00 0.446E-01   -.204E+00 0.147E+00 -.411E-01   0.153E-01 0.132E-01 -.311E-04   -.942E-04 -.105E-04 0.886E-04
   -.232E+00 -.902E-01 0.133E-01   0.237E+00 0.109E+00 -.979E-02   0.316E-02 -.197E-01 0.278E-04   0.436E-04 0.983E-04 0.877E-04
   0.433E-01 0.223E+00 0.291E-01   -.304E-01 -.235E+00 -.264E-01   -.173E-01 0.675E-02 0.638E-03   0.575E-04 -.864E-04 0.916E-04
   -.114E+00 0.159E+00 -.160E+00   0.120E+00 -.160E+00 0.164E+00   -.333E-02 -.108E-03 -.494E-03   0.895E-05 -.133E-04 0.797E-05
   0.172E+00 0.281E-01 -.141E+00   -.176E+00 -.332E-01 0.144E+00   0.243E-02 0.265E-02 0.110E-04   -.539E-05 0.565E-05 0.124E-04
   -.736E-01 -.179E+00 -.146E+00   0.717E-01 0.186E+00 0.151E+00   0.924E-03 -.364E-02 -.719E-03   0.209E-05 0.112E-04 0.762E-05
   0.275E-01 0.952E-02 0.634E+00   -.274E-01 -.104E-01 -.666E+00   0.246E-03 0.815E-03 0.522E-01   -.111E-04 0.777E-06 -.450E-04
   -.597E+02 0.600E+01 -.183E+02   0.649E+02 -.269E+01 0.194E+02   -.526E+01 -.331E+01 -.108E+01   0.290E-03 -.241E-04 0.191E-03
   0.350E+02 0.487E+02 -.183E+02   -.348E+02 -.549E+02 0.194E+02   -.230E+00 0.621E+01 -.108E+01   -.165E-03 -.243E-03 0.194E-03
   0.246E+02 -.547E+02 -.184E+02   -.301E+02 0.576E+02 0.194E+02   0.549E+01 -.291E+01 -.108E+01   -.117E-03 0.255E-03 0.210E-03
   0.596E+02 -.602E+01 0.184E+02   -.649E+02 0.272E+01 -.195E+02   0.526E+01 0.330E+01 0.109E+01   -.293E-03 0.119E-04 -.188E-03
   -.350E+02 -.486E+02 0.184E+02   0.348E+02 0.549E+02 -.195E+02   0.226E+00 -.621E+01 0.109E+01   0.157E-03 0.252E-03 -.190E-03
   -.246E+02 0.546E+02 0.184E+02   0.301E+02 -.576E+02 -.195E+02   -.548E+01 0.291E+01 0.109E+01   0.128E-03 -.252E-03 -.205E-03
   0.136E+02 -.334E+02 0.589E+02   -.134E+02 0.388E+02 -.616E+02   -.174E+00 -.541E+01 0.269E+01   -.111E-03 -.133E-03 -.212E-03
   -.358E+02 0.487E+01 0.588E+02   0.404E+02 -.772E+01 -.615E+02   -.460E+01 0.285E+01 0.269E+01   -.481E-04 0.152E-03 -.218E-03
   0.221E+02 0.285E+02 0.589E+02   -.269E+02 -.311E+02 -.616E+02   0.477E+01 0.255E+01 0.269E+01   0.160E-03 -.366E-04 -.211E-03
   -.131E+02 0.335E+02 -.589E+02   0.129E+02 -.389E+02 0.616E+02   0.234E+00 0.542E+01 -.270E+01   0.103E-03 0.120E-03 0.209E-03
   0.356E+02 -.536E+01 -.589E+02   -.401E+02 0.827E+01 0.616E+02   0.457E+01 -.291E+01 -.270E+01   0.406E-04 -.136E-03 0.212E-03
   -.224E+02 -.281E+02 -.589E+02   0.272E+02 0.306E+02 0.616E+02   -.480E+01 -.250E+01 -.269E+01   -.146E-03 0.341E-04 0.206E-03
   0.111E-02 0.620E-03 0.172E-02   0.355E-13 -.533E-13 0.497E-13   0.666E-03 0.253E-04 0.565E-01   -.115E-05 0.574E-05 0.258E-03

 POSITION                                       TOTAL-FORCE (eV/Angst)
      5.24795      3.03080     -4.23939         0.000020     -0.000121      0.002885
      2.62432     -1.51474      2.11949        -0.002572      0.007420      0.000360
      2.62391      1.51525      4.23926         0.007536     -0.001181      0.000469
      5.24811      0.00080     -0.00027        -0.004480     -0.005327      0.000206
      2.62436     -1.51474      5.29919         0.002848     -0.001332      0.000945
      2.62386      1.51525      1.05961        -0.002221     -0.002248      0.000981
      5.24808      0.00086      3.17942        -0.000815      0.002868      0.000763
      0.00002      0.00002      3.18130         0.000192     -0.000091      0.012164
      3.55481     -1.00445      3.72641         0.013817      0.003748      0.009714
      2.60048      0.45426     -0.51320        -0.003425     -0.013410      0.010527
      4.34099      0.55162      1.60658        -0.010199      0.009401      0.010678
      1.69326      4.03529     -1.60685        -0.013742     -0.004538     -0.018002
      2.64746      2.57640      2.63279         0.002528      0.014103     -0.019215
      0.90692      2.47923      0.51297         0.010577     -0.008972     -0.018655
      1.56342      0.09129      2.07373         0.000974      0.003773     -0.006968
      4.54521      1.63118     -2.16585         0.003424     -0.002525     -0.006790
      4.38774     -1.72098     -0.04609        -0.004521     -0.002589     -0.006083
      3.68433      2.93947      0.04631        -0.001345     -0.007211      0.008814
      0.70285      1.39983      4.28590        -0.006251      0.004789      0.008638
      0.86042      4.75159      2.16603         0.007655      0.003444      0.008569
    total drift:                                0.001776      0.000651      0.058438

  FREE ENERGIE OF THE ION-ELECTRON SYSTEM (eV)
  free  energy   TOTEN  =      -249.57392770 eV

  energy  without entropy=     -249.57392180  energy(sigma->0) =     -249.57392475

 reached required accuracy - stopping structural energy minimisation

 total charge

[...]

 magnetization (x)

# of ion       s       p       d       tot
    1        0.002   0.001   0.006   0.009
    2        0.052   0.034   3.843   3.928
    3        0.052   0.034   3.843   3.928
    4        0.052   0.034   3.843   3.928
    5        0.017   0.030   3.747   3.794
    6        0.017   0.030   3.747   3.794
    7        0.017   0.030   3.747   3.794
    8        0.020   0.038   3.187   3.245
    9        0.005  -0.024   0.000  -0.018
   10        0.005  -0.024   0.000  -0.018
   11        0.005  -0.024   0.000  -0.018
   12        0.005  -0.024   0.000  -0.018
   13        0.005  -0.024   0.000  -0.018
   14        0.005  -0.024   0.000  -0.018
   15        0.006  -0.025   0.000  -0.019
   16        0.006  -0.025   0.000  -0.019
   17        0.006  -0.025   0.000  -0.019
   18        0.006  -0.025   0.000  -0.019
   19        0.006  -0.025   0.000  -0.019
   20        0.006  -0.025   0.000  -0.019
tot          0.296  -0.063  25.963  26.196