 vasp.6.1.2 22Jul20 (build Mar 19 2021 09:51:12) complex

 executed on             LinuxIFC date 2021.07.24  07:53:26

 INCAR:
 POTCAR:    PAW_PBE Ca_sv 06Sep2000
 POTCAR:    PAW_PBE Ti_pv 07Sep2000
 POTCAR:    PAW_PBE O 08Apr2002
 POTCAR:    PAW_PBE Ca_sv 06Sep2000
   VRHFIN =Ca: 3s3p4s

   TITEL  = PAW_PBE Ca_sv 06Sep2000
   POMASS =   40.078; ZVAL   =   10.000    mass and valenz
   ENMAX  =  266.622; ENMIN  =  199.967 eV

 POTCAR:    PAW_PBE Ti_pv 07Sep2000
   VRHFIN =Ti: d3 s1

   TITEL  = PAW_PBE Ti_pv 07Sep2000
   POMASS =   47.880; ZVAL   =   10.000    mass and valenz
   ENMAX  =  222.335; ENMIN  =  166.751 eV

 POTCAR:    PAW_PBE O 08Apr2002
   VRHFIN =O: s2p4

   TITEL  = PAW_PBE O 08Apr2002
   POMASS =   16.000; ZVAL   =    6.000    mass and valenz
   ENMAX  =  400.000; ENMIN  =  300.000 eV

 Optimization of the real space projectors (new method)

 maximal supplied QI-value         = 16.25
 optimisation between [QCUT,QGAM] = [ 11.54, 23.24] = [ 37.28,151.24] Ry
 Optimized for a Real-space Cutoff    1.58 Angstroem

   l    n(q)    QCUT    max X(q) W(low)/X(q) W(high)/X(q)  e(spline)
   0     11    11.539    11.817    0.25E-04    0.22E-05    0.26E-07
   0     11    11.539     8.461    0.39E-04    0.49E-05    0.55E-07
   1     11    11.539     3.957    0.21E-05    0.44E-05    0.32E-07
   1     11    11.539     4.314    0.56E-04    0.44E-04    0.19E-06
   2     10    11.539    14.565    0.25E-03    0.21E-04    0.75E-06
   2     10    11.539    14.552    0.23E-03    0.22E-04    0.72E-06
 Optimization of the real space projectors (new method)

[...]

   l    n(q)    QCUT    max X(q) W(low)/X(q) W(high)/X(q)  e(spline)
   1     10    11.641     4.216    0.17E-04    0.40E-04    0.50E-07
   1     10    11.641     5.422    0.66E-04    0.10E-03    0.13E-06
   2      9    11.641    72.084    0.68E-04    0.13E-03    0.50E-06
   2      9    11.641    65.965    0.66E-04    0.13E-03    0.50E-06
   0     10    11.641    41.531    0.10E-03    0.87E-04    0.31E-06
   0     10    11.641    16.290    0.75E-04    0.66E-04    0.24E-06
 Optimization of the real space projectors (new method)

 maximal supplied QI-value         = 24.76
 optimisation between [QCUT,QGAM] = [ 11.64, 23.27] = [ 37.91,151.63] Ry
 Optimized for a Real-space Cutoff    1.14 Angstroem

   l    n(q)    QCUT    max X(q) W(low)/X(q) W(high)/X(q)  e(spline)
   0      8    11.635    20.381    0.10E-03    0.33E-03    0.24E-06
   0      8    11.635    15.268    0.11E-03    0.35E-03    0.26E-06
   1      7    11.635     5.964    0.24E-03    0.31E-03    0.30E-06
   1      7    11.635     5.382    0.22E-03    0.25E-03    0.26E-06
  PAW_PBE Ca_sv 06Sep2000               :
  PAW_PBE Ti_pv 07Sep2000               :
  PAW_PBE O 08Apr2002                   :

 POSCAR: Ca4 Ti4 O12
  positions in direct lattice
  velocities in cartesian coordinates

 METAGGA = SCAN     LMAXTAU =  6    LMIXTAU =  F

 ion  position               nearest neighbor table
   1  0.459  0.250  0.493-   9 2.34  13 2.37  19 2.37  10 2.44   8 3.16   6 3.16
   2  0.959  0.250  0.007-  10 2.34  14 2.37  20 2.37   9 2.44   5 3.16   7 3.16
   3  0.541  0.750  0.507-  11 2.34  17 2.37  15 2.37  12 2.44   6 3.16   8 3.16
   4  0.041  0.750  0.993-  12 2.34  18 2.37  16 2.37  11 2.44   7 3.16   5 3.16
   5  0.500  1.000  0.000-  11 1.96   9 1.96  19 1.97  15 1.97  18 1.98  14 1.98   2 3.16   4 3.16

   6  0.000  0.500  0.500-  12 1.96  10 1.96  20 1.97  16 1.97  17 1.98  13 1.98   1 3.16   3 3.16

[...]

   9  0.520  0.250  0.923-   7 1.96   5 1.96   1 2.34   2 2.44
  10  0.020  0.250  0.577-   8 1.96   6 1.96   2 2.34   1 2.44
  11  0.480  0.750  0.077-   7 1.96   5 1.96   3 2.34   4 2.44
  12  0.980  0.750  0.423-   8 1.96   6 1.96   4 2.34   3 2.44
  13  0.708  0.460  0.293-   7 1.97   6 1.98   1 2.37
  14  0.208  0.040  0.207-   8 1.97   5 1.98   2 2.37
  15  0.292  0.960  0.707-   5 1.97   8 1.98   3 2.37
  16  0.792  0.540  0.793-   6 1.97   7 1.98   4 2.37
  17  0.292  0.540  0.707-   7 1.97   6 1.98   3 2.37
  18  0.792  0.960  0.793-   8 1.97   5 1.98   4 2.37
  19  0.708  0.040  0.293-   5 1.97   8 1.98   1 2.37
  20  0.208  0.460  0.207-   6 1.97   7 1.98   2 2.37

IMPORTANT INFORMATION: All symmetrisations will be switched off!
NOSYMM: (Re-)initialisation of all symmetry stuff for point group C_1.

                                     Primitive cell

  volume of cell :     226.2243

  direct lattice vectors                    reciprocal lattice vectors
     5.470858188 -0.000000025  0.000000372     0.182786679  0.000000001 -0.000000012
    -0.000000039  7.665405778 -0.000000035     0.000000001  0.130456238  0.000000001
     0.000000365 -0.000000024  5.394467375    -0.000000013  0.000000001  0.185375113

  length of vectors
     5.470858188  7.665405778  5.394467375     0.182786679  0.130456238  0.185375113

  position of ions in fractional coordinates (direct lattice)
     0.458913681  0.249999986  0.493146402
     0.958913812  0.249999975  0.006853692
     0.541087321  0.749999985  0.506848815
     0.041087388  0.749999987  0.993151048
     0.500022441  0.999983088  0.000010292
     0.000022655  0.500016821  0.499990075
     0.500022546  0.500017014  0.000009918
     0.000022535  0.999983300  0.499989716
     0.519872937  0.250000264  0.922555967
     0.019872831  0.249999746  0.577444051
     0.480137387  0.749999709  0.077435971
     0.980137421  0.750000242  0.422564015
     0.707795273  0.459637483  0.292653572
     0.207795182  0.040362455  0.207346518
     0.292175999  0.959643794  0.707354576
     0.792176013  0.540356190  0.792645316
     0.292176527  0.540356202  0.707355060
     0.792176555  0.959643778  0.792644864
     0.707795783  0.040362469  0.292654078
     0.207795713  0.459637511  0.207346054

  ion indices of the primitive-cell ions
   primitive index   ion index
                 1           1
                 2           2
                 3           3
                 4           4
                 5           5
                 6           6
                 7           7
                 8           8
                 9           9
                10          10
                11          11
                12          12
                13          13
                14          14
                15          15
                16          16
                17          17
                18          18
                19          19
                20          20

 KPOINTS: K-points file

Automatic generation of k-mesh.
Space group operators:
 irot       det(A)        alpha          n_x          n_y          n_z        tau_x        tau_y        tau_z
    1     1.000000     0.000000     1.000000     0.000000     0.000000     0.000000     0.000000     0.000000

 Subroutine IBZKPT returns following result:

 Found     92 irreducible k-points:

 Following reciprocal coordinates:
            Coordinates               Weight
  0.000000  0.000000  0.000000      1.000000
  0.166667  0.000000 -0.000000      2.000000
  0.333333  0.000000  0.000000      2.000000
  0.500000  0.000000  0.000000      1.000000
  0.000000  0.200000 -0.000000      2.000000
  0.166667  0.200000 -0.000000      2.000000
  0.166667 -0.200000  0.000000      2.000000
  0.333333  0.200000  0.000000      2.000000
  0.333333 -0.200000  0.000000      2.000000
  0.500000  0.200000  0.000000      2.000000
  0.000000  0.400000 -0.000000      2.000000
  0.166667  0.400000 -0.000000      2.000000
  0.166667 -0.400000  0.000000      2.000000
  0.333333  0.400000  0.000000      2.000000
  0.333333 -0.400000  0.000000      2.000000
  0.500000  0.400000  0.000000      2.000000
  0.000000  0.000000  0.166667      2.000000
  0.166667 -0.000000  0.166667      2.000000
 -0.166667 -0.000000  0.166667      2.000000
  0.333333  0.000000  0.166667      2.000000
 -0.333333  0.000000  0.166667      2.000000
  0.500000  0.000000  0.166667      2.000000
 -0.000000  0.200000  0.166667      2.000000
 -0.000000 -0.200000  0.166667      2.000000
  0.166667  0.200000  0.166667      2.000000
 -0.166667 -0.200000  0.166667      2.000000
  0.166667 -0.200000 -0.166667      2.000000
 -0.166667  0.200000 -0.166667      2.000000
  0.333333  0.200000  0.166667      2.000000
 -0.333333 -0.200000  0.166667      2.000000
  0.333333 -0.200000 -0.166667      2.000000
 -0.333333  0.200000 -0.166667      2.000000
  0.500000  0.200000  0.166667      2.000000
  0.500000 -0.200000  0.166667      2.000000
 -0.000000  0.400000  0.166667      2.000000
 -0.000000 -0.400000  0.166667      2.000000
  0.166667  0.400000  0.166667      2.000000
 -0.166667 -0.400000  0.166667      2.000000
  0.166667 -0.400000 -0.166667      2.000000
 -0.166667  0.400000 -0.166667      2.000000
  0.333333  0.400000  0.166667      2.000000
 -0.333333 -0.400000  0.166667      2.000000
  0.333333 -0.400000 -0.166667      2.000000
 -0.333333  0.400000 -0.166667      2.000000
  0.500000  0.400000  0.166667      2.000000
  0.500000 -0.400000  0.166667      2.000000
  0.000000  0.000000  0.333333      2.000000
  0.166667 -0.000000  0.333333      2.000000
 -0.166667  0.000000  0.333333      2.000000
  0.333333  0.000000  0.333333      2.000000
 -0.333333 -0.000000  0.333333      2.000000
  0.500000 -0.000000  0.333333      2.000000
  0.000000  0.200000  0.333333      2.000000
  0.000000 -0.200000  0.333333      2.000000
  0.166667  0.200000  0.333333      2.000000
 -0.166667 -0.200000  0.333333      2.000000
  0.166667 -0.200000 -0.333333      2.000000
 -0.166667  0.200000 -0.333333      2.000000
  0.333333  0.200000  0.333333      2.000000
 -0.333333 -0.200000  0.333333      2.000000
[...]
  0.166667  0.000000  0.500000      2.000000
  0.333333  0.000000  0.500000      2.000000
  0.500000  0.000000  0.500000      1.000000
 -0.000000  0.200000  0.500000      2.000000
  0.166667  0.200000  0.500000      2.000000
  0.166667 -0.200000  0.500000      2.000000
  0.333333  0.200000  0.500000      2.000000
  0.333333 -0.200000  0.500000      2.000000
  0.500000  0.200000  0.500000      2.000000
  0.000000  0.400000  0.500000      2.000000
  0.166667  0.400000  0.500000      2.000000
  0.166667 -0.400000  0.500000      2.000000
  0.333333  0.400000  0.500000      2.000000
  0.333333 -0.400000  0.500000      2.000000
  0.500000  0.400000  0.500000      2.000000

 Following cartesian coordinates:
            Coordinates               Weight
  0.000000  0.000000  0.000000      1.000000
  0.030464  0.000000 -0.000000      2.000000
  0.060929  0.000000 -0.000000      2.000000
  0.091393  0.000000 -0.000000      1.000000
  0.000000  0.026091  0.000000      2.000000
  0.030464  0.026091 -0.000000      2.000000
  0.030464 -0.026091 -0.000000      2.000000
  0.060929  0.026091 -0.000000      2.000000
  0.060929 -0.026091 -0.000000      2.000000
  0.091393  0.026091 -0.000000      2.000000
  0.000000  0.052182  0.000000      2.000000
  0.030464  0.052182 -0.000000      2.000000
  0.030464 -0.052182 -0.000000      2.000000
  0.060929  0.052182 -0.000000      2.000000
  0.060929 -0.052182 -0.000000      2.000000
  0.091393  0.052182 -0.000000      2.000000
 -0.000000  0.000000  0.030896      2.000000
  0.030464  0.000000  0.030896      2.000000
[...]

 real space projection operators:
  max/ min on nodes  :       2480.34       2208.88

[...]

 eigenvalue-minimisations  : 17517
 total energy-change (2. order) : 0.2061073E-05  (-0.2675063E-06)
 number of electron     152.0000069 magnetization       0.0000000
 augmentation part       36.6809405 magnetization       0.0000004

 Broyden mixing:
  rms(total) = 0.12109E-03    rms(broyden)= 0.12104E-03
  rms(prec ) = 0.14371E-03
  weight for this iteration     100.00

 eigenvalues of (default mixing * dielectric matrix)
  average eigenvalue GAMMA=   1.3473
  2.3232  1.1602  1.0407  0.8650

[...]

--------------------------------------- Iteration      5(   6)  ---------------------------------------

atom =   5  type =  2  l = 2

[...]

  o =  0.1036  v =  0.6164 -0.1145 -0.6560  0.3390  0.2483  0.0000  0.0000  0.0000  0.0000  0.0000      0.0000  0.0000  0.0000  0.0000  0.0000  0.0000  0.0000  0.0000  0.0000  0.0000
  o =  0.1036  v =  0.0000  0.0000  0.0000  0.0000  0.0000  0.6164 -0.1145 -0.6560  0.3390  0.2483      0.0000  0.0000  0.0000  0.0000  0.0000  0.0000  0.0000  0.0000  0.0000  0.0000
  o =  0.1082  v =  0.0000  0.0000  0.0000  0.0000  0.0000  0.0620  0.9366  0.0586  0.0738  0.3319      0.0000  0.0000  0.0000  0.0000  0.0000  0.0000  0.0000  0.0000  0.0000  0.0000
  o =  0.1082  v =  0.0620  0.9366  0.0586  0.0738  0.3319  0.0000  0.0000  0.0000  0.0000  0.0000      0.0000  0.0000  0.0000  0.0000  0.0000  0.0000  0.0000  0.0000  0.0000  0.0000
  o =  0.1146  v =  0.7564  0.0410  0.5524 -0.0395 -0.3457  0.0000  0.0000  0.0000  0.0000  0.0000      0.0000  0.0000  0.0000  0.0000  0.0000  0.0000  0.0000  0.0000  0.0000  0.0000
  o =  0.1146  v =  0.0000  0.0000  0.0000  0.0000  0.0000  0.7564  0.0410  0.5524 -0.0395 -0.3457      0.0000  0.0000  0.0000  0.0000  0.0000  0.0000  0.0000  0.0000  0.0000  0.0000
  o =  0.2855  v =  0.0000  0.0000  0.0000  0.0000  0.0000 -0.2092  0.0637  0.1197  0.8984 -0.3616      0.0000  0.0000  0.0000  0.0000  0.0000  0.0000  0.0000  0.0000  0.0000  0.0000
  o =  0.2855  v = -0.2092  0.0637  0.1198  0.8984 -0.3615  0.0000  0.0000  0.0000  0.0000  0.0000      0.0000  0.0000  0.0000  0.0000  0.0000  0.0000  0.0000  0.0000  0.0000  0.0000
  o =  0.2888  v =  0.0161 -0.3225  0.4968  0.2663  0.7603  0.0000  0.0000  0.0000  0.0000  0.0000      0.0000  0.0000  0.0000  0.0000  0.0000  0.0000  0.0000  0.0000  0.0000  0.0000
  o =  0.2888  v =  0.0000  0.0000  0.0000  0.0000  0.0000  0.0161 -0.3225  0.4968  0.2663  0.7602      0.0000  0.0000  0.0000  0.0000  0.0000  0.0000  0.0000  0.0000  0.0000  0.0000
atom =   8  type =  2  l = 2

 onsite density matrix

[...]

  0.1179  0.0028 -0.0015 -0.0337 -0.0132
  0.0028  0.1277 -0.0278  0.0052 -0.0483
 -0.0015 -0.0278  0.1553 -0.0439  0.0601
 -0.0337  0.0052 -0.0439  0.2636  0.0213
 -0.0132 -0.0483  0.0601  0.0213  0.2363

 occupancies and eigenvectors

  o =  0.1036  v =  0.6164  0.1145  0.6560  0.3390 -0.2483  0.0000  0.0000  0.0000  0.0000  0.0000      0.0000  0.0000  0.0000  0.0000  0.0000  0.0000  0.0000  0.0000  0.0000  0.0000
  o =  0.1036  v =  0.0000  0.0000  0.0000  0.0000  0.0000  0.6164  0.1145  0.6560  0.3390 -0.2483      0.0000  0.0000  0.0000  0.0000  0.0000  0.0000  0.0000  0.0000  0.0000  0.0000
  o =  0.1082  v = -0.0620  0.9366  0.0586 -0.0738  0.3319  0.0000  0.0000  0.0000  0.0000  0.0000      0.0000  0.0000  0.0000  0.0000  0.0000  0.0000  0.0000  0.0000  0.0000  0.0000
  o =  0.1082  v =  0.0000  0.0000  0.0000  0.0000  0.0000 -0.0620  0.9366  0.0586 -0.0738  0.3319      0.0000  0.0000  0.0000  0.0000  0.0000  0.0000  0.0000  0.0000  0.0000  0.0000
  o =  0.1146  v =  0.7564 -0.0410 -0.5524 -0.0395  0.3457  0.0000  0.0000  0.0000  0.0000  0.0000      0.0000  0.0000  0.0000  0.0000  0.0000  0.0000  0.0000  0.0000  0.0000  0.0000
  o =  0.1146  v =  0.0000  0.0000  0.0000  0.0000  0.0000  0.7564 -0.0410 -0.5524 -0.0395  0.3457      0.0000  0.0000  0.0000  0.0000  0.0000  0.0000  0.0000  0.0000  0.0000  0.0000
  o =  0.2855  v = -0.2092 -0.0637 -0.1198  0.8984  0.3615  0.0000  0.0000  0.0000  0.0000  0.0000      0.0000  0.0000  0.0000  0.0000  0.0000  0.0000  0.0000  0.0000  0.0000  0.0000
  o =  0.2855  v =  0.0000  0.0000  0.0000  0.0000  0.0000 -0.2092 -0.0637 -0.1198  0.8984  0.3615      0.0000  0.0000  0.0000  0.0000  0.0000  0.0000  0.0000  0.0000  0.0000  0.0000
  o =  0.2888  v =  0.0000  0.0000  0.0000  0.0000  0.0000  0.0161  0.3225 -0.4968  0.2663 -0.7603      0.0000  0.0000  0.0000  0.0000  0.0000  0.0000  0.0000  0.0000  0.0000  0.0000
  o =  0.2888  v =  0.0161  0.3225 -0.4968  0.2663 -0.7603  0.0000  0.0000  0.0000  0.0000  0.0000      0.0000  0.0000  0.0000  0.0000  0.0000  0.0000  0.0000  0.0000  0.0000  0.0000

 eigenvalue-minimisations  : 17490
 total energy-change (2. order) :-0.1835688E-06  (-0.1396303E-06)
 number of electron     152.0000069 magnetization       0.0000000
 augmentation part       36.6809405 magnetization       0.0000004

 Free energy of the ion-electron system (eV)
  alpha Z        PSCENC =       818.55384463
  Ewald energy   TEWEN  =    -10597.82206983
  -Hartree energ DENC   =     -2778.05469222
  -exchange      EXHF   =         0.00000000
  -V(xc)+E(xc)   XCENC  =       779.54466740
  PAW double counting   =     14385.28722208   -14496.94399649
  entropy T*S    EENTRO =        -0.00000000
  eigenvalues    EBANDS =     -1733.19988036
  atomic energy  EATOM  =     13383.04089882
  Solvation  Ediel_sol  =         0.00000000
  free energy    TOTEN  =      -239.59400597 eV

  energy without entropy =     -239.59400597  energy(sigma->0) =     -239.59400597

 average (electrostatic) potential at core
  the test charge radii are     1.1137  1.0397  0.7215
  (the norm of the test charge is              1.0000)
       1 -47.4525       2 -47.4525       3 -47.4534       4 -47.4534       5 -58.9863
       6 -58.9863       7 -58.9863       8 -58.9863       9 -73.9451      10 -73.9451
      11 -73.9460      12 -73.9460      13 -73.9108      14 -73.9108      15 -73.9118
      16 -73.9118      17 -73.9118      18 -73.9118      19 -73.9108      20 -73.9108

 E-fermi :   3.0454     XC(G=0): -11.9289     alpha+bet :-13.4265

[...]

 spin component 2

[...]

 k-point    92 :       0.5000    0.4000    0.5000
  band No.  band energies     occupation
      1     -36.4269      1.00000
      2     -36.4269      1.00000
      3     -36.4241      1.00000
      4     -36.4241      1.00000
      5     -31.5594      1.00000
      6     -31.5594      1.00000
      7     -31.5567      1.00000
      8     -31.5567      1.00000
      9     -31.5382      1.00000
     10     -31.5382      1.00000
     11     -31.5182      1.00000
     12     -31.5182      1.00000
     13     -31.4799      1.00000
     14     -31.4799      1.00000
     15     -31.4783      1.00000
     16     -31.4783      1.00000
     17     -17.0811      1.00000
     18     -17.0811      1.00000
     19     -17.0024      1.00000
     20     -17.0024      1.00000
     21     -16.7675      1.00000
     22     -16.7675      1.00000
     23     -16.6836      1.00000
     24     -16.6836      1.00000
     25     -16.5572      1.00000
     26     -16.5572      1.00000
     27     -16.5469      1.00000
     28     -16.5469      1.00000
     29     -14.4158      1.00000
     30     -14.4158      1.00000
     31     -14.3363      1.00000
     32     -14.3363      1.00000
     33     -14.1349      1.00000
     34     -14.1349      1.00000
     35     -14.0441      1.00000
     36     -14.0441      1.00000
     37     -13.7742      1.00000
     38     -13.7742      1.00000
     39     -13.7523      1.00000
     40     -13.7523      1.00000
     41      -1.2073      1.00000
     42      -1.2073      1.00000
     43      -1.2051      1.00000
     44      -1.2051      1.00000
     45      -0.8817      1.00000
     46      -0.8817      1.00000
     47      -0.6150      1.00000
     48      -0.6150      1.00000
     49      -0.3713      1.00000
     50      -0.3713      1.00000
     51      -0.1287      1.00000
     52      -0.1287      1.00000
     53       0.3904      1.00000
     54       0.3904      1.00000
     55       0.4820      1.00000
     56       0.4820      1.00000
     57       0.8685      1.00000
     58       0.8685      1.00000
     59       0.9810      1.00000
     60       0.9810      1.00000
[...]
     79       6.9626      0.00000
     80       6.9626      0.00000
     81       7.2519      0.00000
     82       7.2519      0.00000
     83       7.2978      0.00000
     84       7.2978      0.00000
     85       7.6214      0.00000
     86       7.6214      0.00000
     87       7.7106      0.00000
     88       7.7106      0.00000
     89       8.5393      0.00000
     90       8.5393      0.00000
     91       8.6959      0.00000
     92       8.6960      0.00000
     93      10.1761      0.00000

[...]

 soft charge-density along one line, spin component           2
         0         1         2         3         4         5         6         7         8         9
 total charge-density along one line

------------------------ aborting loop because EDIFF is reached ----------------------------------------

[...]

  FORCE on cell =-STRESS in cart. coord.  units (eV):
  Direction    XX          YY          ZZ          XY          YZ          ZX
  Alpha Z   818.55384   818.55384   818.55384
  Ewald   -3577.64740 -3507.29120 -3512.91432     0.00006     0.00008     0.00032
  Hartree   902.49632   943.77030   931.79403     0.00003     0.00005     0.00015
  E(xc)    -775.54129  -775.57790  -775.39329     0.00000     0.00000     0.00000
  Local     254.38687   143.88951   160.53167    -0.00009    -0.00013    -0.00047
  n-local  -490.56377  -489.36180  -491.36254    -0.00000    -0.00000     0.00000
  augment   420.00568   419.56182   419.89714     0.00000    -0.00000     0.00000
  Kinetic  2448.22239  2446.33737  2448.78416     0.00000     0.00001     0.00002
  Fock        0.00000     0.00000     0.00000     0.00000     0.00000     0.00000
  Total      -0.08735    -0.11806    -0.10932     0.00000     0.00000     0.00002
  in kB      -0.61678    -0.83364    -0.77189     0.00001     0.00003     0.00013

 VOLUME and BASIS-vectors are now :
  energy-cutoff  :      520.00
  volume of cell :      226.90
      direct lattice vectors                 reciprocal lattice vectors
     5.484862559 -0.000000028 -0.000000231     0.182319974  0.000000001  0.000000008
    -0.000000041  7.671982930 -0.000000104     0.000000001  0.130344398  0.000000002
    -0.000000228 -0.000000074  5.392172015     0.000000008  0.000000003  0.185454024

  length of vectors
     5.484862559  7.671982930  5.392172015     0.182319974  0.130344398  0.185454024

 FORCES acting on ions
    electron-ion (+dipol)            ewald-force                    non-local-force                 convergence-correction
   -.366E+02 0.455E-04 -.104E+02   0.367E+02 -.502E-04 0.106E+02   -.139E+00 0.179E-05 -.208E+00   0.207E-03 0.391E-07 -.331E-04
   -.366E+02 0.478E-04 0.104E+02   0.367E+02 -.529E-04 -.106E+02   -.139E+00 0.109E-05 0.208E+00   0.207E-03 0.321E-06 0.352E-04
   0.366E+02 0.813E-04 0.104E+02   -.367E+02 -.871E-04 -.106E+02   0.138E+00 0.165E-05 0.210E+00   -.186E-03 0.557E-06 0.413E-04
   0.366E+02 0.681E-04 -.104E+02   -.367E+02 -.697E-04 0.106E+02   0.138E+00 0.126E-06 -.210E+00   -.186E-03 -.103E-06 -.442E-04
   0.255E-01 -.319E-01 -.283E-01   -.278E-01 0.360E-01 0.313E-01   0.268E-02 -.127E-03 0.248E-03   -.783E-04 -.299E-04 -.699E-04
   0.258E-01 0.317E-01 0.279E-01   -.281E-01 -.358E-01 -.309E-01   0.267E-02 0.142E-03 -.239E-03   -.767E-04 0.312E-04 0.667E-04
   0.254E-01 0.317E-01 -.279E-01   -.276E-01 -.357E-01 0.309E-01   0.268E-02 0.140E-03 0.245E-03   -.820E-04 0.323E-04 -.715E-04
   0.257E-01 -.320E-01 0.283E-01   -.280E-01 0.360E-01 -.314E-01   0.268E-02 -.126E-03 -.248E-03   -.769E-04 -.319E-04 0.693E-04
   0.146E+02 -.151E-03 0.333E+02   -.153E+02 0.147E-03 -.356E+02   0.699E+00 0.111E-04 0.230E+01   0.223E-03 0.554E-05 -.544E-04
   0.146E+02 0.234E-03 -.333E+02   -.153E+02 -.245E-03 0.356E+02   0.699E+00 0.539E-05 -.230E+01   0.223E-03 -.530E-05 0.558E-04
   -.146E+02 0.296E-03 -.334E+02   0.153E+02 -.306E-03 0.357E+02   -.697E+00 0.149E-05 -.230E+01   -.215E-03 -.638E-05 0.270E-04
   -.146E+02 -.825E-04 0.334E+02   0.153E+02 0.764E-04 -.357E+02   -.697E+00 0.117E-04 0.230E+01   -.216E-03 0.473E-05 -.276E-04
   0.130E+02 0.158E+02 -.220E+02   -.141E+02 -.173E+02 0.237E+02   0.116E+01 0.156E+01 -.175E+01   0.323E-03 -.329E-03 -.221E-03
   0.130E+02 -.158E+02 0.220E+02   -.141E+02 0.173E+02 -.237E+02   0.116E+01 -.156E+01 0.175E+01   0.325E-03 0.328E-03 0.218E-03
   -.130E+02 0.158E+02 0.220E+02   0.141E+02 -.173E+02 -.237E+02   -.116E+01 0.156E+01 0.175E+01   -.304E-03 -.209E-03 0.251E-03
   -.130E+02 -.158E+02 -.220E+02   0.141E+02 0.173E+02 0.237E+02   -.116E+01 -.156E+01 -.175E+01   -.308E-03 0.209E-03 -.247E-03
   -.130E+02 -.158E+02 0.220E+02   0.141E+02 0.173E+02 -.237E+02   -.116E+01 -.156E+01 0.175E+01   -.296E-03 0.209E-03 0.259E-03
   -.130E+02 0.158E+02 -.220E+02   0.141E+02 -.173E+02 0.237E+02   -.116E+01 0.156E+01 -.175E+01   -.301E-03 -.209E-03 -.255E-03
   0.130E+02 -.158E+02 -.220E+02   -.141E+02 0.173E+02 0.237E+02   0.116E+01 -.156E+01 -.175E+01   0.329E-03 0.329E-03 -.214E-03
   0.130E+02 0.158E+02 0.220E+02   -.141E+02 -.173E+02 -.237E+02   0.116E+01 0.156E+01 0.175E+01   0.333E-03 -.328E-03 0.210E-03
   0.634E-02 -.183E-04 0.173E-04   0.533E-13 0.135E-12 0.853E-13   -.334E-02 0.442E-04 0.190E-05   -.156E-03 0.105E-05 -.363E-05

 POSITION                                       TOTAL-FORCE (eV/Angst)
      2.51235      1.91800      2.65692        -0.022775     -0.000004     -0.017585
      5.25478      1.91800      0.03916        -0.022787     -0.000005      0.017583
      2.97257      5.75399      2.73529         0.021917     -0.000005      0.016097
      0.23014      5.75399      5.35297         0.021906     -0.000003     -0.016098
      2.74245     -0.00006     -0.00006         0.000072      0.003766      0.003170
      0.00002      3.83605      2.69614         0.000027     -0.003743     -0.003109
      2.74245      3.83605     -0.00006         0.000087     -0.003745      0.003122
      0.00002     -0.00006      2.69614         0.000036      0.003769     -0.003164
      2.85266      1.91800      4.97413         0.011861      0.000011     -0.005020
      0.11023      1.91800      3.11412         0.011873     -0.000012      0.005016
      2.63233      5.75399      0.41806        -0.010328     -0.000016      0.005219
      5.37476      5.75399      2.27802        -0.010318      0.000009     -0.005225
      3.88477      3.52538      1.57828         0.006124     -0.009241     -0.008314
      1.14234      0.31061      1.11780         0.006118      0.009236      0.008315
      1.59998      7.36139      3.81390        -0.006532     -0.010714      0.008304
      4.34241      4.14659      4.27436        -0.006529      0.010705     -0.008308
      1.59998      4.14659      3.81390        -0.006519      0.010707      0.008320
      4.34241      7.36139      4.27436        -0.006509     -0.010712     -0.008326
      3.88477      0.31061      1.57828         0.006143      0.009237     -0.008296
      1.14234      3.52538      1.11780         0.006134     -0.009240      0.008300
    total drift:                                0.002842      0.000027      0.000016

  FREE ENERGIE OF THE ION-ELECTRON SYSTEM (eV)
  free  energy   TOTEN  =      -239.59400597 eV

  energy  without entropy=     -239.59400597  energy(sigma->0) =     -239.59400597

 d Force = 0.1252764E-03[ 0.116E-03, 0.134E-03]  d Energy = 0.2062419E-03-0.810E-04
 d Force =-0.1368018E+00[-0.137E+00,-0.136E+00]  d Ewald  = 0.1464969E+00-0.283E+00

 reached required accuracy - stopping structural energy minimisation

 total charge

[...]

 magnetization (x)

# of ion       s       p       d       tot
    1        0.000   0.000  -0.000   0.000
    2        0.000  -0.000   0.000   0.000
    3        0.000   0.000  -0.000   0.000
    4        0.000   0.000  -0.000   0.000
    5        0.000  -0.000   0.000   0.000
    6       -0.000   0.000   0.000   0.000
    7        0.000  -0.000  -0.000  -0.000
    8       -0.000   0.000  -0.000  -0.000
    9        0.000   0.000   0.000   0.000
   10        0.000   0.000   0.000   0.000
   11       -0.000  -0.000   0.000  -0.000
   12        0.000   0.000   0.000   0.000
   13        0.000  -0.000   0.000  -0.000
   14        0.000  -0.000   0.000   0.000
   15        0.000   0.000   0.000   0.000
   16        0.000  -0.000   0.000  -0.000
   17       -0.000   0.000   0.000   0.000
   18        0.000  -0.000   0.000  -0.000
   19        0.000  -0.000   0.000  -0.000
   20        0.000  -0.000   0.000   0.000
tot          0.000   0.000  -0.000   0.000