 vasp.6.3.0 20Jan22 (build Apr 15 2022 04:40:24) complex
 executed on              LinuxNV date 2022.06.09  12:00:29

 INCAR:
   ALGO = ALL
   EDIFF = 1E-5
   EDIFFG = -0.03
   ENCUT = 520
   IBRION = 2
   ICHARG = 2
   ISIF = 3
   ISYM = 0
   ISPIN = 2
   LREAL = Auto
   NELMIN = 6
   NELM = 150
   NSW = 199
   PREC = Accurate
   ISMEAR = 0
   SIGMA = 0.05
   MAGMOM = 4*0.6 4*2.0 6*0.6 24*0.6
   LWAVE = False
   LORBIT = 11
   LPLANE = True
   NCORE = 24
   NSIM = 4

 POTCAR:    PAW_PBE Ca_sv 06Sep2000
 POTCAR:    PAW_PBE V_pv 07Sep2000
 POTCAR:    PAW_PBE P 06Sep2000
 POTCAR:    PAW_PBE O 08Apr2002
 POTCAR:    PAW_PBE Ca_sv 06Sep2000
   VRHFIN =Ca: 3s3p4s

   TITEL  = PAW_PBE Ca_sv 06Sep2000
   POMASS =   40.078; ZVAL   =   10.000    mass and valenz
   ENMAX  =  266.622; ENMIN  =  199.967 eV

   TITEL  = PAW_PBE V_pv 07Sep2000
   POMASS =   50.941; ZVAL   =   11.000    mass and valenz
   ENMAX  =  263.673; ENMIN  =  197.755 eV

   TITEL  = PAW_PBE P 06Sep2000
   POMASS =   30.974; ZVAL   =    5.000    mass and valenz
   ENMAX  =  255.040; ENMIN  =  191.280 eV

   TITEL  = PAW_PBE O 08Apr2002
   POMASS =   16.000; ZVAL   =    6.000    mass and valenz
   ENMAX  =  400.000; ENMIN  =  300.000 eV

 Optimization of the real space projectors (new method)

 maximal supplied QI-value         = 16.25
 optimisation between [QCUT,QGAM] = [ 11.54, 23.24] = [ 37.28,151.24] Ry
 Optimized for a Real-space Cutoff    1.58 Angstroem

   l    n(q)    QCUT    max X(q) W(low)/X(q) W(high)/X(q)  e(spline)
   0     11    11.539    11.817    0.25E-04    0.22E-05    0.26E-07
   0     11    11.539     8.461    0.39E-04    0.49E-05    0.55E-07
   1     11    11.539     3.957    0.21E-05    0.44E-05    0.32E-07
   1     11    11.539     4.314    0.56E-04    0.44E-04    0.19E-06
   2     10    11.539    14.565    0.25E-03    0.21E-04    0.75E-06
   2     10    11.539    14.552    0.23E-03    0.22E-04    0.72E-06
 Optimization of the real space projectors (new method)

[...]

   l    n(q)    QCUT    max X(q) W(low)/X(q) W(high)/X(q)  e(spline)
   0      8    11.508   160.924    0.96E-04    0.17E-03    0.52E-07
   0      8    11.508   130.086    0.95E-04    0.17E-03    0.51E-07
   1      8    11.508    74.434    0.16E-03    0.74E-04    0.91E-07
   1      8    11.508    49.120    0.16E-03    0.71E-04    0.89E-07
 Optimization of the real space projectors (new method)

 maximal supplied QI-value         = 24.76
 optimisation between [QCUT,QGAM] = [ 11.64, 23.27] = [ 37.91,151.63] Ry
 Optimized for a Real-space Cutoff    1.14 Angstroem

   l    n(q)    QCUT    max X(q) W(low)/X(q) W(high)/X(q)  e(spline)
   0      8    11.635    20.381    0.10E-03    0.33E-03    0.24E-06
   0      8    11.635    15.268    0.11E-03    0.35E-03    0.26E-06
   1      7    11.635     5.964    0.24E-03    0.31E-03    0.30E-06
   1      7    11.635     5.382    0.22E-03    0.25E-03    0.26E-06
  PAW_PBE Ca_sv 06Sep2000               :
  PAW_PBE V_pv 07Sep2000                :
  PAW_PBE P 06Sep2000                   :
  PAW_PBE O 08Apr2002                   :

 POSCAR: Ca5 V4 P6 O24
  positions in direct lattice
  velocities in cartesian coordinates
 exchange correlation table for  LEXCH =        8
   RHO(1)=    0.500       N(1)  =     2000
   RHO(2)=  100.500       N(2)  =     4000

 ion  position               nearest neighbor table
   1  0.539  0.470  0.497-  19 2.24  15 2.34  17 2.38  26 2.42  22 2.47   5 3.03
   2  0.956  0.999  0.026-  23 2.24  21 2.34  25 2.38  20 2.42  18 2.47   7 3.03
   3  0.388  0.747  0.094-  31 2.38  22 2.43  33 2.45  20 2.46  16 2.48  24 2.54  14 2.93  12 2.96

   4  0.108  0.402  0.749-  35 2.38  18 2.43  27 2.45  26 2.46  24 2.48  16 2.53  14 2.93  10 2.96

   5  0.648  0.642  0.634-  30 2.04  19 2.04  28 2.06  15 2.07  32 2.09  17 2.12   1 3.03
   6  0.150  0.145  0.152-  29 1.96  31 2.05  27 2.09  16 2.13  20 2.14  18 2.16
   7  0.848  0.862  0.854-  34 2.04  23 2.04  36 2.06  21 2.07  38 2.09  25 2.12   2 3.03
   8  0.346  0.345  0.350-  37 1.96  35 2.05  33 2.09  24 2.13  26 2.14  22 2.16
   9  0.248  0.552  0.944-  27 1.56  33 1.56  25 1.56  17 1.56
  10  0.034  0.752  0.450-  28 1.52  34 1.53  20 1.57  24 1.61   4 2.96
  11  0.963  0.243  0.556-  29 1.52  21 1.55  19 1.56  35 1.56
  12  0.462  0.046  0.744-  36 1.52  30 1.53  26 1.57  16 1.61   3 2.96
  13  0.533  0.940  0.253-  37 1.52  15 1.55  23 1.56  31 1.56
  14  0.748  0.457  0.039-  38 1.54  32 1.54  18 1.57  22 1.57   4 2.93   3 2.93
  15  0.564  0.754  0.411-  13 1.55   5 2.07   1 2.34
  16  0.268  0.070  0.909-  12 1.61   6 2.13   3 2.48   4 2.53
  17  0.414  0.565  0.761-   9 1.56   5 2.12   1 2.38
  18  0.918  0.278  0.061-  14 1.57   6 2.16   4 2.43   2 2.47
  19  0.779  0.408  0.560-  11 1.56   5 2.04   1 2.24
  20  0.073  0.909  0.262-  10 1.57   6 2.14   2 2.42   3 2.46
  21  0.932  0.086  0.742-  11 1.55   7 2.07   2 2.34
  22  0.577  0.435  0.218-  14 1.57   8 2.16   3 2.43   1 2.47
  23  0.717  0.935  0.088-  13 1.56   7 2.04   2 2.24
  24  0.228  0.587  0.426-  10 1.61   8 2.13   4 2.48   3 2.54
  25  0.082  0.736  0.931-   9 1.56   7 2.12   2 2.38
  26  0.423  0.234  0.587-  12 1.57   8 2.14   1 2.42   4 2.46
  27  0.198  0.393  0.973-   9 1.56   6 2.09   4 2.45
  28  0.883  0.707  0.468-  10 1.52   5 2.06
  29  0.022  0.185  0.392-  11 1.52   6 1.96
  30  0.496  0.869  0.721-  12 1.53   5 2.04
  31  0.389  0.951  0.195-  13 1.56   6 2.05   3 2.38
  32  0.729  0.480  0.865-  14 1.54   5 2.09
  33  0.298  0.522  0.103-   9 1.56   8 2.09   3 2.45
  34  1.000  0.775  0.627-  10 1.53   7 2.04
  35  0.106  0.301  0.545-  11 1.56   8 2.05   4 2.38
  36  0.614  0.028  0.788-  12 1.52   7 2.06
  37  0.474  0.104  0.310-  13 1.52   8 1.96
  38  0.767  0.631  0.016-  14 1.54   7 2.09

IMPORTANT INFORMATION: All symmetrisations will be switched off!
NOSYMM: (Re-)initialisation of all symmetry stuff for point group C_1.

                                     Primitive cell

  volume of cell :     499.0888

  direct lattice vectors                    reciprocal lattice vectors
     2.590502570  7.398964305  4.440063421    -0.001110660  0.136651605 -0.001847536
    -0.023772331  0.119270843  8.836067753    -0.063005150 -0.046126728  0.113625633
     7.706881005  0.121080829  4.322600825     0.129933158 -0.046074783  0.000971495

  length of vectors
     9.009413939  8.836904661  8.837168850     0.136668607  0.137869897  0.137863901

  position of ions in fractional coordinates (direct lattice)
     0.539142568  0.469991737  0.497490966
     0.956482802  0.998566191  0.026075020
     0.388183336  0.746917241  0.094029142
     0.107647603  0.401723115  0.749218748
     0.648179825  0.641864718  0.633697445
     0.149971380  0.145456184  0.151508952
     0.847796768  0.862397340  0.853916205
     0.345928565  0.344522103  0.350488097
     0.247996798  0.552192507  0.943796715
     0.034412486  0.752075743  0.450097053
     0.962936131  0.242707535  0.556250198
     0.461677459  0.046004414  0.743694690
     0.532921998  0.939640596  0.253286202
     0.748013187  0.456746005  0.039129414
     0.563705048  0.754415410  0.410562544
     0.268317063  0.070328973  0.908656643
     0.413905629  0.564668026  0.760674750
     0.918466085  0.278118573  0.061362009
     0.779428656  0.407764275  0.560383351
     0.072963245  0.908988159  0.262287249
     0.931718861  0.085800316  0.741719774
     0.577287160  0.435147641  0.217610571
     0.716540909  0.935026211  0.088402995
     0.227840319  0.587173948  0.425914422
     0.082349151  0.735525679  0.931002126
     0.422980237  0.233689614  0.586738617
     0.197766074  0.392711497  0.973478695
     0.882683717  0.706964085  0.468147118
     0.021713362  0.185115925  0.392247819
     0.496234076  0.868792327  0.720663738
     0.389413399  0.951162830  0.195238000
     0.729305356  0.479529229  0.865070392
     0.298113258  0.522471494  0.103384618
     0.999828832  0.775451054  0.627109518
     0.106464673  0.300701857  0.544729374
     0.613515226  0.028185201  0.788441951
     0.474340206  0.103906853  0.310427430
     0.767110511  0.630875709  0.015603342

  ion indices of the primitive-cell ions
   primitive index   ion index
                 1           1
                 2           2
                 3           3
                 4           4
                 5           5
                 6           6
                 7           7
                 8           8
                 9           9
                10          10
                11          11
                12          12
                13          13
                14          14
                15          15
                16          16
                17          17
                18          18
                19          19
                20          20
                21          21
                22          22
                23          23
                24          24
                25          25
                26          26
                27          27
                28          28
                29          29
                30          30
                31          31
                32          32
                33          33
                34          34
                35          35
                36          36
                37          37
                38          38

 KPOINTS: Fully automatic kpoint scheme

Automatic generation of k-mesh.
 Grid dimensions derived from RKLEN:
 generate k-points for:    4    4    4

 Generating k-lattice:

  Cartesian coordinates                     Fractional coordinates (reciprocal lattice)
    -0.000277665  0.034162901 -0.000461884     0.250000000  0.000000000 -0.000000000
    -0.015751288 -0.011531682  0.028406408     0.000000000  0.250000000 -0.000000000
     0.032483290 -0.011518696  0.000242874    -0.000000000 -0.000000000  0.250000000

  Length of vectors
     0.034167152  0.034467474  0.034465975

  Shift w.r.t. Gamma in fractional coordinates (k-lattice)
     0.000000000  0.000000000  0.000000000

 Subroutine IBZKPT returns following result:

 Found     36 irreducible k-points:

 Following reciprocal coordinates:
            Coordinates               Weight
  0.000000  0.000000  0.000000      1.000000
  0.250000  0.000000  0.000000      2.000000
  0.500000  0.000000  0.000000      1.000000
  0.000000  0.250000  0.000000      2.000000
  0.250000  0.250000  0.000000      2.000000
  0.500000  0.250000  0.000000      2.000000
 -0.250000  0.250000  0.000000      2.000000
  0.000000  0.500000  0.000000      1.000000
  0.250000  0.500000  0.000000      2.000000
  0.500000  0.500000  0.000000      1.000000
  0.000000  0.000000  0.250000      2.000000
  0.250000  0.000000  0.250000      2.000000
  0.500000  0.000000  0.250000      2.000000
 -0.250000  0.000000  0.250000      2.000000
  0.000000  0.250000  0.250000      2.000000
  0.250000  0.250000  0.250000      2.000000
  0.500000  0.250000  0.250000      2.000000
 -0.250000  0.250000  0.250000      2.000000
  0.000000  0.500000  0.250000      2.000000
  0.250000  0.500000  0.250000      2.000000
  0.500000  0.500000  0.250000      2.000000
 -0.250000  0.500000  0.250000      2.000000
[...]
     48     -15.8378      1.00000
     49     -15.8093      1.00000
     50     -15.7950      1.00000
     51     -15.7658      1.00000
     52     -15.7630      1.00000
     53      -6.8765      1.00000
     54      -6.4005      1.00000
     55      -6.1775      1.00000
     56      -6.1153      1.00000
     57      -5.8768      1.00000
     58      -5.8538      1.00000
     59      -4.9259      1.00000
     60      -4.5724      1.00000
[...]
    154       8.2525      0.00000
    155       8.3755      0.00000
    156       8.4514      0.00000
    157       8.5562      0.00000
    158       8.6514      0.00000
    159       8.7666      0.00000
    160       8.8361      0.00000
    161       9.0001      0.00000
    162       9.0879      0.00000
    163       9.1956      0.00000
    164       9.3244      0.00000
    165       9.4388      0.00000
    166       9.6675      0.00000
    167       9.8997      0.00000
    168      10.3122      0.00000
 Fermi energy:         4.4095644077

 spin component 2

[...]

 k-point    36 :       0.5000    0.5000    0.5000
  band No.  band energies     occupation
      1     -37.2318      1.00000
      2     -37.2298      1.00000
      3     -37.0250      1.00000
      4     -37.0214      1.00000
      5     -32.8417      1.00000
      6     -32.8269      1.00000
      7     -32.7887      1.00000
      8     -32.7749      1.00000
      9     -32.7459      1.00000
     10     -32.7254      1.00000
     11     -32.6711      1.00000
     12     -32.6508      1.00000
     13     -32.5142      1.00000
     14     -32.5010      1.00000
     15     -32.2652      1.00000
     16     -32.2484      1.00000
     17     -19.3575      1.00000
     18     -19.2194      1.00000
     19     -19.1063      1.00000
     20     -18.8606      1.00000
     21     -18.6524      1.00000
     22     -18.5850      1.00000
     23     -18.5357      1.00000
     24     -18.4210      1.00000
     25     -18.3158      1.00000
     26     -18.2712      1.00000
     27     -18.1730      1.00000
     28     -18.1712      1.00000
     29     -18.1378      1.00000
     30     -18.0707      1.00000
     31     -18.0121      1.00000
     32     -17.9769      1.00000
     33     -17.9387      1.00000
     34     -17.8592      1.00000
     35     -16.7020      1.00000
     36     -16.5631      1.00000
     37     -16.5550      1.00000
     38     -16.5040      1.00000
     39     -16.3198      1.00000
     40     -16.2855      1.00000
     41     -16.1939      1.00000
     42     -16.1161      1.00000
     43     -16.1084      1.00000
     44     -16.0682      1.00000
     45     -15.9858      1.00000
     46     -15.9612      1.00000
     47     -15.8308      1.00000
     48     -15.8275      1.00000
     49     -15.7948      1.00000
     50     -15.7864      1.00000
     51     -15.7586      1.00000
     52     -15.7549      1.00000
     53      -6.8041      1.00000
     54      -6.3213      1.00000
     55      -6.1370      1.00000
     56      -6.0746      1.00000
     57      -5.8314      1.00000
     58      -5.8016      1.00000
     59      -4.8345      1.00000
     60      -4.4713      1.00000
[...]
    154       8.3459      0.00000
    155       8.4728      0.00000
    156       8.5333      0.00000
    157       8.6528      0.00000
    158       8.6888      0.00000
    159       8.8716      0.00000
    160       8.9609      0.00000
    161       9.0967      0.00000
    162       9.1530      0.00000
    163       9.2744      0.00000
    164       9.4197      0.00000
    165       9.5036      0.00000
    166       9.7067      0.00000
    167       9.9748      0.00000
    168      10.3662      0.00000

 soft charge-density along one line, spin component            1
         0         1         2         3         4         5         6         7         8         9
 total charge-density along one line

 soft charge-density along one line, spin component            2
         0         1         2         3         4         5         6         7         8         9
 total charge-density along one line

------------------------ aborting loop because EDIFF is reached ----------------------------------------

 total charge

# of ion       s       p       d       tot
    1        2.024   5.863   0.229   8.115
    2        2.024   5.863   0.229   8.115
    3        2.023   5.863   0.239   8.124
    4        2.023   5.863   0.239   8.124
    5        0.191   6.182   2.922   9.295
    6        0.187   6.174   2.976   9.336
    7        0.191   6.182   2.922   9.295
    8        0.187   6.174   2.976   9.337
    9        0.907   1.480   0.000   2.387
   10        0.910   1.495   0.000   2.405
   11        0.906   1.499   0.000   2.406
   12        0.910   1.495   0.000   2.405
   13        0.906   1.499   0.000   2.406
   14        0.913   1.514   0.000   2.427
   15        1.559   3.610   0.000   5.169
   16        1.558   3.580   0.000   5.139
   17        1.558   3.593   0.000   5.151
   18        1.561   3.597   0.000   5.158
   19        1.560   3.622   0.000   5.181
   20        1.560   3.599   0.000   5.159
   21        1.559   3.610   0.000   5.169
   22        1.561   3.597   0.000   5.158
   23        1.560   3.622   0.000   5.181
   24        1.558   3.580   0.000   5.138
   25        1.558   3.593   0.000   5.151
   26        1.560   3.600   0.000   5.160
   27        1.556   3.596   0.000   5.153
   28        1.565   3.587   0.000   5.152
   29        1.559   3.618   0.000   5.177
   30        1.562   3.595   0.000   5.157
   31        1.558   3.605   0.000   5.163
   32        1.564   3.582   0.000   5.146
   33        1.556   3.596   0.000   5.153
   34        1.562   3.595   0.000   5.157
   35        1.558   3.605   0.000   5.163
   36        1.565   3.587   0.000   5.152
   37        1.559   3.617   0.000   5.177
   38        1.564   3.583   0.000   5.147
tot         51.743 143.512  12.731 207.986

 magnetization (x)

[...]

  FORCE on cell =-STRESS in cart. coord.  units (eV):
  Direction    XX          YY          ZZ          XY          YZ          ZX
  Alpha Z   870.90950   870.90950   870.90950
  Ewald   -4429.86337 -4922.85147 -4163.77052    15.17018    25.26632   234.64441
  Hartree  2355.20493  2054.33992  2504.01154     6.64259    10.81283   131.01788
  E(xc)   -1259.95693 -1260.51420 -1259.63899    -0.06794    -0.11861     0.28091
  Local   -1745.16676  -960.07033 -2158.44388   -23.84286   -39.52712  -364.27383
  n-local  -745.10182  -748.57576  -745.58491    -1.34588    -2.29849    -0.41236
  augment   354.29067   354.83669   356.42163     1.40605     2.41386     1.88883
  Kinetic  4599.71953  4611.93845  4596.16992     2.07612     3.51446    -3.10002
  Fock        0.00000     0.00000     0.00000     0.00000     0.00000     0.00000
  Total       0.03575     0.01280     0.07429     0.03826     0.06326     0.04582
  in kB       0.11476     0.04110     0.23850     0.12284     0.20309     0.14709

 VOLUME and BASIS-vectors are now :
  energy-cutoff  :      520.00
  volume of cell :      499.09
      direct lattice vectors                 reciprocal lattice vectors
     2.590502570  7.398964305  4.440063421    -0.001110660  0.136651605 -0.001847536
    -0.023772331  0.119270843  8.836067753    -0.063005150 -0.046126728  0.113625633
     7.706881005  0.121080829  4.322600825     0.129933158 -0.046074783  0.000971495

  length of vectors
     9.009413939  8.836904661  8.837168850     0.136668607  0.137869897  0.137863901

 FORCES acting on ions:
    Electron-Ion                     Ewald-Force                    Non-Local-Force
   -.582E+01 -.611E+02 0.568E+02   0.727E+01 0.625E+02 -.546E+02   -.145E+01 -.136E+01 -.221E+01
   -.529E+02 0.609E+02 -.229E+02   0.517E+02 -.622E+02 0.206E+02   0.121E+01 0.136E+01 0.236E+01
   0.421E+02 -.324E+02 0.298E+02   -.407E+02 0.312E+02 -.293E+02   -.140E+01 0.117E+01 -.466E+00
   -.543E+01 0.323E+02 -.510E+02   0.569E+01 -.311E+02 0.496E+02   -.272E+00 -.117E+01 0.145E+01
   0.330E+02 0.213E+02 -.555E+02   -.335E+02 -.208E+02 0.559E+02   0.431E+00 -.478E+00 -.352E+00
   -.107E+03 0.556E+02 -.141E+03   0.109E+03 -.552E+02 0.143E+03   -.238E+01 -.406E+00 -.197E+01
   0.637E+02 -.212E+02 -.168E+01   -.643E+02 0.208E+02 0.185E+01   0.537E+00 0.482E+00 -.190E+00
   0.706E+02 -.557E+02 0.163E+03   -.712E+02 0.553E+02 -.166E+03   0.546E+00 0.412E+00 0.304E+01
   -.877E+01 0.173E+00 0.514E+01   0.862E+01 -.174E+00 -.505E+01   0.172E+00 0.481E-02 -.969E-01
   0.290E+02 0.520E+02 -.535E+02   -.270E+02 -.561E+02 0.522E+02   -.212E+01 0.430E+01 0.135E+01
   0.180E+02 -.207E+01 0.364E+02   -.190E+02 0.264E+01 -.376E+02   0.110E+01 -.590E+00 0.123E+01
   0.608E+02 -.519E+02 0.133E+01   -.587E+02 0.560E+02 -.243E+01   -.221E+01 -.431E+01 0.115E+01
   -.230E+02 0.194E+01 -.335E+02   0.235E+02 -.251E+01 0.350E+02   -.526E+00 0.572E+00 -.155E+01
   -.595E+02 0.232E+00 0.345E+02   0.559E+02 -.222E+00 -.324E+02   0.383E+01 -.135E-01 -.222E+01
   0.235E+02 0.201E+02 0.164E+02   -.153E+01 -.176E+02 -.336E+02   -.220E+02 -.255E+01 0.171E+02
   0.566E+02 0.373E+02 0.654E+02   -.472E+02 -.611E+02 -.673E+02   -.941E+01 0.239E+02 0.191E+01
   0.290E+02 0.231E+02 0.402E+02   -.484E+02 -.247E+01 -.410E+02   0.194E+02 -.206E+02 0.774E+00
   -.880E+02 0.775E+02 0.603E+02   0.102E+03 -.571E+02 -.756E+02   -.136E+02 -.205E+02 0.153E+02
   0.503E+02 0.154E+01 0.865E+02   -.595E+02 -.241E+02 -.774E+02   0.921E+01 0.226E+02 -.914E+01
   0.765E+01 0.126E+03 0.318E+01   -.323E+02 -.124E+03 0.991E+01   0.246E+02 -.170E+01 -.131E+02
   -.318E+01 -.196E+02 -.289E+02   0.289E+02 0.170E+02 0.183E+02   -.257E+02 0.266E+01 0.106E+02
   -.956E+02 -.774E+02 0.464E+02   0.116E+03 0.569E+02 -.506E+02   -.200E+02 0.205E+02 0.424E+01
   -.514E+02 -.191E+01 -.852E+02   0.390E+02 0.245E+02 0.887E+02   0.124E+02 -.226E+02 -.342E+01
   -.291E+02 -.374E+02 -.817E+02   0.354E+02 0.613E+02 0.745E+02   -.631E+01 -.239E+02 0.721E+01
   -.202E+02 -.231E+02 -.454E+02   0.113E+02 0.245E+01 0.626E+02   0.891E+01 0.206E+02 -.173E+02
   0.984E+00 -.126E+03 -.769E+01   -.245E+02 0.124E+03 0.227E+02   0.235E+02 0.174E+01 -.150E+02
   -.170E+02 -.244E+02 -.348E+02   0.171E+02 0.176E+02 0.781E+01   -.183E+00 0.681E+01 0.270E+02
   0.138E+03 0.441E+02 0.119E+02   -.150E+03 -.660E+02 -.352E+02   0.118E+02 0.219E+02 0.232E+02
   -.101E+02 0.589E+02 0.288E+02   -.957E+01 -.543E+02 -.502E+02   0.197E+02 -.465E+01 0.214E+02
   0.859E+02 0.411E+02 0.421E+02   -.895E+02 -.412E+02 -.733E+02   0.363E+01 0.803E-01 0.313E+02
   -.618E+02 -.184E+02 -.120E+02   0.486E+02 0.103E+01 -.471E+01   0.132E+02 0.173E+02 0.167E+02
   0.687E+01 0.194E+02 0.124E+03   -.339E+02 -.219E+02 -.143E+03   0.270E+02 0.252E+01 0.188E+02
   0.221E+02 0.248E+02 0.318E+02   0.146E+01 -.180E+02 -.187E+02   -.236E+02 -.680E+01 -.131E+02
   0.573E+01 -.413E+02 -.954E+02   0.197E+02 0.414E+02 0.114E+03   -.254E+02 -.107E+00 -.186E+02
   -.199E+02 0.179E+02 0.598E+02   0.280E+02 -.567E+00 -.401E+02   -.803E+01 -.173E+02 -.197E+02
   0.577E+02 -.440E+02 -.126E+03   -.433E+02 0.659E+02 0.148E+03   -.144E+02 -.220E+02 -.217E+02
   -.297E+02 -.592E+02 -.546E+01   0.386E+02 0.546E+02 0.332E+02   -.888E+01 0.461E+01 -.277E+02
   -.104E+03 -.191E+02 -.669E+02   0.107E+03 0.216E+02 0.996E+02   -.295E+01 -.257E+01 -.327E+02
   0.965E+01 0.972E-01 -.573E+01   0.142E-12 0.249E-13 -.171E-12   -.964E+01 -.949E-01 0.571E+01

 POSITION                                       TOTAL-FORCE (eV/Angst)
      5.21958      4.10539      8.69716        -0.004065     -0.008316     -0.003413
      2.65499      7.19924     13.18295         0.002247      0.006495      0.004394
      1.71251      2.97263      8.72982         0.004794     -0.000614      0.003680
      6.04345      0.93511      7.26619        -0.007217     -0.001358     -0.006289
      6.54768      4.94914     11.28874         0.001420      0.004098      0.010392
      1.55270      1.14533      2.60606        -0.012940      0.012687     -0.005298
      8.75675      6.47907     15.07561        -0.005878     -0.000534     -0.004111
      3.58911      2.64304      6.09519        -0.002752     -0.011729      0.012275
      7.90304      2.01506     10.05999         0.006884      0.004301      0.000970
      3.54011      0.39882      8.74378         0.002788      0.013414     -0.009702
      6.77567      7.22103      8.82453         0.017701     -0.000806      0.006396
      6.92645      3.51147      5.67107         0.009237     -0.017435     -0.010414
      3.31024      4.08581     11.76379         0.016617     -0.012546     -0.008791
      2.22844      5.59374      7.52621         0.005545     -0.002604     -0.005434
      4.60650      4.31052     10.94365        -0.008452      0.008576      0.012157
      7.69631      2.10368      5.74054        -0.019977     -0.015627      0.003207
      6.92123      3.22192     10.11531         0.011307     -0.007306      0.003108
      2.84559      6.83630      6.80077         0.010008     -0.002031      0.003156
      6.32823      5.88345      9.48606        -0.006476     -0.009158     -0.023099
      2.18882      0.68003      9.48961         0.005523      0.004260     -0.000492
      8.12793      6.99380      8.10119        -0.004373     -0.006510     -0.009171
      3.16222      4.34958      7.34883         0.002912      0.004661     -0.014864
      2.51528      5.42389     11.82557         0.010204      0.018662      0.017411
      3.85873      1.80739      8.04099        -0.014829      0.010945      0.009349
      7.37096      0.80975     10.88914        -0.000725     -0.000591     -0.011439
      5.61210      3.22853      6.47919        -0.002901     -0.004855     -0.006664
      8.00546      1.62797      8.55608        -0.011559     -0.003587      0.007674
      5.87774      6.67195     12.18957        -0.004678      0.017404     -0.001146
      3.07486      0.23023      3.42764         0.015973     -0.013491      0.010539
      6.81891      3.86250     12.99516        -0.009405     -0.000001     -0.005172
      2.49084      3.01834     10.97750        -0.014313     -0.007797     -0.004112
      8.54486      5.55804     11.21467         0.000064      0.019701     -0.007417
      1.55662      2.28056      6.38713        -0.008493     -0.002242      0.009588
      7.40468      7.56612     14.00199         0.005341     -0.001431      0.013777
      4.46681      0.88955      5.48438        -0.001359      0.019091      0.018866
      7.66507      4.63820      6.38121         0.005764     -0.010224      0.008483
      3.61874      3.55961      4.36608        -0.002353      0.012333     -0.019267
      2.09246      5.75296      9.04793         0.008416     -0.015836      0.000872
    total drift:                                0.006076      0.002241     -0.015294

  FREE ENERGIE OF THE ION-ELECTRON SYSTEM (eV)
  free  energy   TOTEN  =      -288.09032222 eV

  energy  without entropy=     -288.06137729  energy(sigma->0) =     -288.07584976

 reached required accuracy - stopping structural energy minimisation

 total charge

[...]

 magnetization (x)

# of ion       s       p       d       tot
    1        0.001   0.000   0.011   0.011
    2        0.001   0.000   0.011   0.011
    3        0.000   0.000   0.009   0.010
    4        0.000   0.000   0.009   0.010
    5        0.012   0.013   2.162   2.186
    6        0.013   0.013   2.250   2.276
    7        0.012   0.013   2.161   2.185
    8        0.013   0.013   2.250   2.276
    9        0.006   0.009   0.000   0.015
   10        0.005   0.009   0.000   0.014
   11        0.005   0.011   0.000   0.017
   12        0.005   0.009   0.000   0.014
   13        0.005   0.011   0.000   0.017
   14        0.004   0.008   0.000   0.013
   15       -0.001  -0.005   0.000  -0.006
   16       -0.000  -0.004   0.000  -0.004
   17       -0.001  -0.006   0.000  -0.007
   18        0.000  -0.004   0.000  -0.004
   19       -0.001  -0.007   0.000  -0.008
   20        0.000  -0.002   0.000  -0.002
   21       -0.001  -0.005   0.000  -0.006
   22        0.000  -0.004   0.000  -0.004
   23       -0.001  -0.007   0.000  -0.008
   24       -0.000  -0.004   0.000  -0.005
   25       -0.001  -0.006   0.000  -0.007
   26        0.000  -0.002   0.000  -0.002
   27       -0.000   0.002   0.000   0.002
   28       -0.001  -0.002   0.000  -0.003
   29       -0.002   0.003   0.000   0.001
   30       -0.001   0.001   0.000  -0.001
   31       -0.000  -0.004   0.000  -0.004
   32       -0.001   0.002   0.000   0.001
   33       -0.000   0.002   0.000   0.002
   34       -0.001   0.001   0.000  -0.001
   35       -0.000  -0.004   0.000  -0.004
   36       -0.001  -0.002   0.000  -0.003
   37       -0.002   0.003   0.000   0.001
   38       -0.001   0.002   0.000   0.001
tot          0.068   0.056   8.862   8.987