 vasp.6.1.2 22Jul20 (build Mar 19 2021 09:51:12) complex

 executed on             LinuxIFC date 2021.07.25  15:54:13

 INCAR:
 POTCAR:    PAW_PBE Ca_sv 06Sep2000
 POTCAR:    PAW_PBE Ni_pv 06Sep2000
 POTCAR:    PAW_PBE O 08Apr2002
 POTCAR:    PAW_PBE Ca_sv 06Sep2000
   VRHFIN =Ca: 3s3p4s

   TITEL  = PAW_PBE Ca_sv 06Sep2000
   POMASS =   40.078; ZVAL   =   10.000    mass and valenz
   ENMAX  =  266.622; ENMIN  =  199.967 eV

 POTCAR:    PAW_PBE Ni_pv 06Sep2000
   VRHFIN =Ni:

   TITEL  = PAW_PBE Ni_pv 06Sep2000
   POMASS =   58.690; ZVAL   =   16.000    mass and valenz
   ENMAX  =  367.986; ENMIN  =  275.989 eV

 POTCAR:    PAW_PBE O 08Apr2002
   VRHFIN =O: s2p4

   TITEL  = PAW_PBE O 08Apr2002
   POMASS =   16.000; ZVAL   =    6.000    mass and valenz
   ENMAX  =  400.000; ENMIN  =  300.000 eV

 Optimization of the real space projectors (new method)

 maximal supplied QI-value         = 16.25
 optimisation between [QCUT,QGAM] = [ 11.54, 23.24] = [ 37.28,151.24] Ry
 Optimized for a Real-space Cutoff    1.58 Angstroem

   l    n(q)    QCUT    max X(q) W(low)/X(q) W(high)/X(q)  e(spline)
   0     11    11.539    11.817    0.25E-04    0.22E-05    0.26E-07
   0     11    11.539     8.461    0.39E-04    0.49E-05    0.55E-07
   1     11    11.539     3.957    0.21E-05    0.44E-05    0.32E-07
   1     11    11.539     4.314    0.56E-04    0.44E-04    0.19E-06
   2     10    11.539    14.565    0.25E-03    0.21E-04    0.75E-06
   2     10    11.539    14.552    0.23E-03    0.22E-04    0.72E-06
 Optimization of the real space projectors (new method)

[...]

   l    n(q)    QCUT    max X(q) W(low)/X(q) W(high)/X(q)  e(spline)
   1      9    11.527     2.836    0.16E-04    0.30E-04    0.95E-07
   1      9    11.527     4.023    0.73E-04    0.81E-04    0.21E-06
   2      9    11.527    73.368    0.15E-03    0.29E-03    0.28E-06
   2      9    11.527    69.010    0.15E-03    0.29E-03    0.29E-06
   0      9    11.527    54.797    0.43E-04    0.28E-04    0.85E-07
   0      9    11.527    24.266    0.33E-04    0.24E-04    0.75E-07
 Optimization of the real space projectors (new method)

 maximal supplied QI-value         = 24.76
 optimisation between [QCUT,QGAM] = [ 11.64, 23.27] = [ 37.91,151.63] Ry
 Optimized for a Real-space Cutoff    1.14 Angstroem

   l    n(q)    QCUT    max X(q) W(low)/X(q) W(high)/X(q)  e(spline)
   0      8    11.635    20.381    0.10E-03    0.33E-03    0.24E-06
   0      8    11.635    15.268    0.11E-03    0.35E-03    0.26E-06
   1      7    11.635     5.964    0.24E-03    0.31E-03    0.30E-06
   1      7    11.635     5.382    0.22E-03    0.25E-03    0.26E-06
  PAW_PBE Ca_sv 06Sep2000               :
  PAW_PBE Ni_pv 06Sep2000               :
  PAW_PBE O 08Apr2002                   :

 POSCAR: Ca1 Ni4 O8
  positions in direct lattice
  velocities in cartesian coordinates

 METAGGA = SCAN     LMAXTAU =  6    LMIXTAU =  F

 ion  position               nearest neighbor table
   1  0.500  0.500  0.500-   8 2.35  11 2.35  10 2.35  13 2.35  12 2.35   9 2.35
   2  0.000  1.000  0.000-  12 1.99  10 1.99   9 1.99  13 1.99  11 2.00   8 2.00
   3  1.000  0.500  0.000-   8 1.86  11 1.86  13 1.86  10 1.86   6 1.88   7 1.88
   4  0.500  0.000  1.000-  11 1.86   8 1.86   9 1.86  12 1.86   7 1.89   6 1.89
   5  0.500  0.500  0.000-  10 1.86  12 1.86  13 1.86   9 1.86   6 1.89   7 1.89
   6  0.724  0.724  0.829-   3 1.88   4 1.89   5 1.89
   7  0.276  0.276  0.171-   3 1.88   4 1.89   5 1.89
   8  0.237  0.237  0.822-   3 1.86   4 1.86   2 2.00   1 2.35
   9  0.705  0.237  0.822-   4 1.86   5 1.86   2 1.99   1 2.35
  10  0.237  0.705  0.822-   3 1.86   5 1.86   2 1.99   1 2.35
  11  0.763  0.763  0.178-   4 1.86   3 1.86   2 2.00   1 2.35
  12  0.295  0.763  0.178-   4 1.86   5 1.86   2 1.99   1 2.35
  13  0.763  0.295  0.178-   3 1.86   5 1.86   2 1.99   1 2.35

IMPORTANT INFORMATION: All symmetrisations will be switched off!
NOSYMM: (Re-)initialisation of all symmetry stuff for point group C_1.

                                     Primitive cell

  volume of cell :     152.9726

  direct lattice vectors                    reciprocal lattice vectors
    -2.824135115 -4.880443219 -0.007435899     0.000122770 -0.205062017  0.060088346
    -5.638673907 -0.005541768 -0.007391537    -0.177526300  0.102636470  0.060085829
    -2.828246166 -1.632927474 -5.566872738     0.000235550  0.000137632 -0.179794111

  length of vectors
     5.638663003  5.638681475  6.454107266     0.213684476  0.213682332  0.179794318

  position of ions in fractional coordinates (direct lattice)
     0.499995662  0.500003786  0.500000274
     0.000003684  0.999996197  0.000000321
     0.999989955  0.499968334  0.000004864
     0.500030994  0.000009872  0.999995828
     0.499992029  0.500007743  0.000000379
     0.723883031  0.723849441  0.828777919
     0.276109171  0.276155929  0.171224726
     0.236920085  0.236923323  0.821808267
     0.704852404  0.236869311  0.821707021
     0.236898664  0.704824008  0.821729729
     0.763057885  0.763100763  0.178189010
     0.295150387  0.763116949  0.178287551
     0.763116048  0.295174343  0.178274110

  ion indices of the primitive-cell ions
   primitive index   ion index
                 1           1
                 2           2
                 3           3
                 4           4
                 5           5
                 6           6
                 7           7
                 8           8
                 9           9
                10          10
                11          11
                12          12
                13          13

 KPOINTS: K-points file

Automatic generation of k-mesh.
Space group operators:
 irot       det(A)        alpha          n_x          n_y          n_z        tau_x        tau_y        tau_z
    1     1.000000     0.000000     1.000000     0.000000     0.000000     0.000000     0.000000     0.000000

 Subroutine IBZKPT returns following result:

 Found    128 irreducible k-points:

 Following reciprocal coordinates:
            Coordinates               Weight
  0.000000  0.000000  0.000000      1.000000
  0.142857  0.000000 -0.000000      2.000000
  0.285714  0.000000 -0.000000      2.000000
  0.428571  0.000000  0.000000      2.000000
 -0.000000  0.166667 -0.000000      2.000000
  0.142857  0.166667 -0.000000      2.000000
  0.285714  0.166667  0.000000      2.000000
  0.428571  0.166667  0.000000      2.000000
 -0.428571  0.166667  0.000000      2.000000
 -0.285714  0.166667  0.000000      2.000000
 -0.142857  0.166667 -0.000000      2.000000
 -0.000000  0.333333 -0.000000      2.000000
  0.142857  0.333333  0.000000      2.000000
  0.285714  0.333333  0.000000      2.000000
  0.428571  0.333333 -0.000000      2.000000
 -0.428571  0.333333 -0.000000      2.000000
 -0.285714  0.333333 -0.000000      2.000000
 -0.142857  0.333333  0.000000      2.000000
  0.000000  0.500000  0.000000      1.000000
  0.142857  0.500000  0.000000      2.000000
  0.285714  0.500000 -0.000000      2.000000
  0.428571  0.500000 -0.000000      2.000000
 -0.000000  0.000000  0.166667      2.000000
  0.142857  0.000000  0.166667      2.000000
  0.285714  0.000000  0.166667      2.000000
  0.428571  0.000000  0.166667      2.000000
 -0.428571 -0.000000  0.166667      2.000000
 -0.285714 -0.000000  0.166667      2.000000
 -0.142857 -0.000000  0.166667      2.000000
  0.000000  0.166667  0.166667      2.000000
  0.142857  0.166667  0.166667      2.000000
  0.285714  0.166667  0.166667      2.000000
  0.428571  0.166667  0.166667      2.000000
 -0.428571  0.166667  0.166667      2.000000
 -0.285714  0.166667  0.166667      2.000000
 -0.142857  0.166667  0.166667      2.000000
  0.000000  0.333333  0.166667      2.000000
  0.142857  0.333333  0.166667      2.000000
  0.285714  0.333333  0.166667      2.000000
  0.428571  0.333333  0.166667      2.000000
 -0.428571  0.333333  0.166667      2.000000
 -0.285714  0.333333  0.166667      2.000000
 -0.142857  0.333333  0.166667      2.000000
 -0.000000  0.500000  0.166667      2.000000
  0.142857  0.500000  0.166667      2.000000
  0.285714  0.500000  0.166667      2.000000
  0.428571  0.500000  0.166667      2.000000
 -0.428571  0.500000  0.166667      2.000000
 -0.285714  0.500000  0.166667      2.000000
 -0.142857  0.500000  0.166667      2.000000
 -0.000000 -0.333333  0.166667      2.000000
  0.142857 -0.333333  0.166667      2.000000
  0.285714 -0.333333  0.166667      2.000000
  0.428571 -0.333333  0.166667      2.000000
 -0.428571 -0.333333  0.166667      2.000000
 -0.285714 -0.333333  0.166667      2.000000
 -0.142857 -0.333333  0.166667      2.000000
  0.000000 -0.166667  0.166667      2.000000
  0.142857 -0.166667  0.166667      2.000000
  0.285714 -0.166667  0.166667      2.000000
[...]
  0.428571  0.166667  0.500000      2.000000
 -0.428571  0.166667  0.500000      2.000000
 -0.285714  0.166667  0.500000      2.000000
 -0.142857  0.166667  0.500000      2.000000
 -0.000000  0.333333  0.500000      2.000000
  0.142857  0.333333  0.500000      2.000000
  0.285714  0.333333  0.500000      2.000000
  0.428571  0.333333  0.500000      2.000000
 -0.428571  0.333333  0.500000      2.000000
 -0.285714  0.333333  0.500000      2.000000
 -0.142857  0.333333  0.500000      2.000000
 -0.000000  0.500000  0.500000      1.000000
  0.142857  0.500000  0.500000      2.000000
  0.285714  0.500000  0.500000      2.000000
  0.428571  0.500000  0.500000      2.000000

 Following cartesian coordinates:
            Coordinates               Weight
  0.000000  0.000000  0.000000      1.000000
  0.000018 -0.029295  0.008584      2.000000
  0.000035 -0.058589  0.017168      2.000000
  0.000053 -0.087884  0.025752      2.000000
 -0.029588  0.017106  0.010014      2.000000
 -0.029570 -0.012188  0.018598      2.000000
 -0.029553 -0.041483  0.027182      2.000000
 -0.029535 -0.070778  0.035766      2.000000
 -0.029640  0.104990 -0.015738      2.000000
 -0.029623  0.075695 -0.007154      2.000000
 -0.029605  0.046401  0.001430      2.000000
 -0.059175  0.034212  0.020029      2.000000
 -0.059158  0.004918  0.028613      2.000000
 -0.059140 -0.024377  0.037197      2.000000
 -0.059123 -0.053672  0.045781      2.000000
 -0.059228  0.122096 -0.005724      2.000000
 -0.059211  0.092801  0.002861      2.000000
 -0.059193  0.063507  0.011445      2.000000
 -0.088763  0.051318  0.030043      1.000000
 -0.088746  0.022024  0.038627      2.000000
 -0.088728 -0.007271  0.047211      2.000000
 -0.088711 -0.036565  0.055795      2.000000
  0.000039  0.000023 -0.029966      2.000000
  0.000057 -0.029272 -0.021382      2.000000
  0.000074 -0.058566 -0.012798      2.000000
  0.000092 -0.087861 -0.004214      2.000000
 -0.000013  0.087907 -0.055718      2.000000
  0.000004  0.058612 -0.047134      2.000000
  0.000022  0.029318 -0.038550      2.000000
 -0.029548  0.017129 -0.019951      2.000000
 -0.029531 -0.012166 -0.011367      2.000000
 -0.029513 -0.041460 -0.002783      2.000000
 -0.029496 -0.070755  0.005801      2.000000
 -0.029601  0.105013 -0.045704      2.000000
 -0.029584  0.075718 -0.037119      2.000000
 -0.029566  0.046424 -0.028535      2.000000
 -0.059136  0.034235 -0.009937      2.000000
[...]
  o =  0.9561  v =  0.0000  0.0000  0.0000  0.0000  0.0000 -0.2789  0.1938 -0.8830 -0.1909  0.2616      0.0000  0.0000  0.0000  0.0000  0.0000  0.0000  0.0000  0.0000  0.0000  0.0000
  o =  0.9564  v = -0.3079  0.2110 -0.8562 -0.2213  0.2805  0.0000  0.0000  0.0000  0.0000  0.0000      0.0000  0.0000  0.0000  0.0000  0.0000  0.0000  0.0000  0.0000  0.0000  0.0000
  o =  0.9565  v =  0.0000  0.0000  0.0000  0.0000  0.0000 -0.4210 -0.5283 -0.1015 -0.3384 -0.6472      0.0000  0.0000  0.0000  0.0000  0.0000  0.0000  0.0000  0.0000  0.0000  0.0000
  o =  0.9568  v =  0.4280  0.5207  0.0996  0.3384  0.6490  0.0000  0.0000  0.0000  0.0000  0.0000      0.0000  0.0000  0.0000  0.0000  0.0000  0.0000  0.0000  0.0000  0.0000  0.0000
  o =  0.9637  v = -0.6135  0.2446  0.5069 -0.4268  0.3531  0.0000  0.0000  0.0000  0.0000  0.0000      0.0000  0.0000  0.0000  0.0000  0.0000  0.0000  0.0000  0.0000  0.0000  0.0000
  o =  0.9637  v =  0.0000  0.0000  0.0000  0.0000  0.0000 -0.6322  0.2524  0.4582 -0.4409  0.3638      0.0000  0.0000  0.0000  0.0000  0.0000  0.0000  0.0000  0.0000  0.0000  0.0000
atom =   5  type =  2  l = 2

 onsite density matrix

[...]

  0.8096 -0.0035  0.0033  0.2076  0.0157
 -0.0035  0.6872  0.0000 -0.0114  0.2117
  0.0033  0.0000  0.9577  0.0000  0.0019
  0.2076 -0.0114  0.0000  0.6740 -0.0035
  0.0157  0.2117  0.0019 -0.0035  0.7915

 occupancies and eigenvectors

  o =  0.4765  v = -0.4984  0.4087  0.0118  0.7083 -0.2875  0.0000  0.0000  0.0000  0.0000  0.0000      0.0000  0.0000  0.0000  0.0000  0.0000  0.0000  0.0000  0.0000  0.0000  0.0000
  o =  0.5025  v =  0.3122  0.6765  0.0000 -0.3903 -0.5410  0.0000  0.0000  0.0000  0.0000  0.0000      0.0000  0.0000  0.0000  0.0000  0.0000  0.0000  0.0000  0.0000  0.0000  0.0000
  o =  0.5198  v =  0.0000  0.0000  0.0000  0.0000  0.0000  0.3154  0.6719 -0.0000 -0.3876 -0.5467      0.0000  0.0000  0.0000  0.0000  0.0000  0.0000  0.0000  0.0000  0.0000  0.0000
  o =  0.5240  v =  0.0000  0.0000  0.0000  0.0000  0.0000 -0.4957  0.4098  0.0049  0.7103 -0.2859      0.0000  0.0000  0.0000  0.0000  0.0000  0.0000  0.0000  0.0000  0.0000  0.0000
  o =  0.9561  v =  0.0000  0.0000  0.0000  0.0000  0.0000  0.3247  0.1346 -0.8873  0.2311  0.1889      0.0000  0.0000  0.0000  0.0000  0.0000  0.0000  0.0000  0.0000  0.0000  0.0000
  o =  0.9564  v =  0.3558  0.1515 -0.8600  0.2611  0.2064  0.0000  0.0000  0.0000  0.0000  0.0000      0.0000  0.0000  0.0000  0.0000  0.0000  0.0000  0.0000  0.0000  0.0000  0.0000
  o =  0.9564  v =  0.0000  0.0000  0.0000  0.0000  0.0000 -0.3884  0.5464  0.0014 -0.3160  0.6714      0.0000  0.0000  0.0000  0.0000  0.0000  0.0000  0.0000  0.0000  0.0000  0.0000
  o =  0.9567  v = -0.3909  0.5407  0.0008 -0.3126  0.6761  0.0000  0.0000  0.0000  0.0000  0.0000      0.0000  0.0000  0.0000  0.0000  0.0000  0.0000  0.0000  0.0000  0.0000  0.0000
  o =  0.9637  v =  0.6121  0.2450  0.5101  0.4243  0.3535  0.0000  0.0000  0.0000  0.0000  0.0000      0.0000  0.0000  0.0000  0.0000  0.0000  0.0000  0.0000  0.0000  0.0000  0.0000
  o =  0.9637  v =  0.0000  0.0000  0.0000  0.0000  0.0000 -0.6313 -0.2530 -0.4611 -0.4381 -0.3645      0.0000  0.0000  0.0000  0.0000  0.0000  0.0000  0.0000  0.0000  0.0000  0.0000

 eigenvalue-minimisations  : 20475
 total energy-change (2. order) : 0.6570248E-05  (-0.2801462E-06)
 number of electron     122.0000011 magnetization       2.0000006
 augmentation part       45.3804617 magnetization       1.3384103

 Free energy of the ion-electron system (eV)
  alpha Z        PSCENC =       584.95731138
  Ewald energy   TEWEN  =     -8178.83660213
  -Hartree energ DENC   =     -9035.76356734
  -exchange      EXHF   =         0.00000000
  -V(xc)+E(xc)   XCENC  =       745.64870632
  PAW double counting   =     17977.01349412   -18584.98799170
  entropy T*S    EENTRO =        -0.00000000
  eigenvalues    EBANDS =     -2114.97196490
  atomic energy  EATOM  =     18469.21461639
  Solvation  Ediel_sol  =         0.00000000
  free energy    TOTEN  =      -137.72599787 eV

  energy without entropy =     -137.72599787  energy(sigma->0) =     -137.72599787

 average (electrostatic) potential at core
  the test charge radii are     1.1137  0.8614  0.7215
  (the norm of the test charge is              1.0000)
       1 -48.7980       2 -89.8949       3 -92.7051       4 -92.7050       5 -92.7034
       6 -76.9867       7 -76.9867       8 -76.2411       9 -76.2388      10 -76.2384
      11 -76.2411      12 -76.2384      13 -76.2389

 E-fermi :   2.8693     XC(G=0): -11.0587     alpha+bet :-10.1011

[...]

 k-point     1 :       0.0000    0.0000    0.0000
  band No.  band energies     occupation
      1     -65.3155      1.00000
      2     -65.2808      1.00000
      3     -65.2807      1.00000
      4     -65.1924      1.00000
      5     -65.1900      1.00000
      6     -65.1768      1.00000
      7     -65.0981      1.00000
      8     -65.0928      1.00000
      9     -65.0913      1.00000
     10     -64.1758      1.00000
     11     -64.1755      1.00000
     12     -64.0293      1.00000
     13     -37.7841      1.00000
     14     -18.5704      1.00000
     15     -18.4875      1.00000
     16     -18.1669      1.00000
     17     -18.1625      1.00000
     18     -17.0680      1.00000
     19     -16.7810      1.00000
     20     -16.6844      1.00000
     21     -16.6801      1.00000
     22     -16.3445      1.00000
     23     -16.3388      1.00000
     24     -15.9593      1.00000
     25      -5.4593      1.00000
     26      -5.0244      1.00000
     27      -5.0233      1.00000
     28      -4.6106      1.00000
     29      -3.6141      1.00000
     30      -3.6033      1.00000
     31      -3.2846      1.00000
     32      -3.2841      1.00000
     33      -3.0982      1.00000
     34      -3.0072      1.00000
     35      -3.0035      1.00000
     36      -2.7574      1.00000
     37      -2.7335      1.00000
     38      -2.7279      1.00000
     39      -1.7847      1.00000
     40      -1.7815      1.00000
     41      -1.7737      1.00000
     42      -1.6593      1.00000
     43      -1.3946      1.00000
     44      -1.3858      1.00000
     45      -0.9821      1.00000
     46      -0.9772      1.00000
     47      -0.8035      1.00000
     48      -0.7891      1.00000
     49      -0.6130      1.00000
     50      -0.3702      1.00000
     51      -0.3034      1.00000
     52      -0.2816      1.00000
     53      -0.2472      1.00000
     54      -0.2350      1.00000
     55       0.3141      1.00000
     56       0.3195      1.00000
     57       0.4856      1.00000
     58       0.5560      1.00000
     59       0.8911      1.00000
     60       0.9088      1.00000
     61       2.3880      1.00000
     62       2.3983      1.00000
     63       3.6799      0.00000
     64       4.0389      0.00000
     65       4.0452      0.00000
     66       4.3516      0.00000
     67       4.3547      0.00000
     68       4.4905      0.00000
     69       7.6944      0.00000
     70       9.1601      0.00000
     71       9.1693      0.00000
     72      10.0004      0.00000
     73      11.5092      0.00000
     74      11.5333      0.00000
     75      12.6921      0.00000

[...]

 spin component 2

[...]

 k-point   128 :       0.4286    0.5000    0.5000
  band No.  band energies     occupation
      1     -65.4753      1.00000
      2     -65.4612      1.00000
      3     -65.4508      1.00000
      4     -65.2974      1.00000
      5     -65.2912      1.00000
      6     -65.2871      1.00000
      7     -65.2415      1.00000
      8     -65.2388      1.00000
      9     -65.2379      1.00000
     10     -60.8234      1.00000
     11     -60.8123      1.00000
     12     -60.7806      1.00000
     13     -37.7646      1.00000
     14     -18.5779      1.00000
     15     -18.1867      1.00000
     16     -18.1242      1.00000
     17     -17.9651      1.00000
     18     -17.3053      1.00000
     19     -16.7392      1.00000
     20     -16.5763      1.00000
     21     -16.5591      1.00000
     22     -16.3422      1.00000
     23     -16.0738      1.00000
     24     -15.9149      1.00000
     25      -4.5411      1.00000
     26      -4.3470      1.00000
     27      -4.1789      1.00000
     28      -3.9656      1.00000
     29      -3.9196      1.00000
     30      -3.8431      1.00000
     31      -3.6671      1.00000
     32      -3.3785      1.00000
     33      -3.3426      1.00000
     34      -3.0085      1.00000
     35      -2.9292      1.00000
     36      -2.6559      1.00000
     37      -2.6340      1.00000
     38      -2.5337      1.00000
     39      -2.3848      1.00000
     40      -1.9605      1.00000
     41      -1.6647      1.00000
     42      -1.5761      1.00000
     43      -1.3555      1.00000
     44      -1.1723      1.00000
     45      -0.7973      1.00000
     46      -0.6634      1.00000
     47      -0.5982      1.00000
     48      -0.3955      1.00000
     49      -0.3264      1.00000
     50      -0.2107      1.00000
     51       0.0335      1.00000
     52       0.1877      1.00000
     53       0.3860      1.00000
     54       0.5094      1.00000
     55       0.6374      1.00000
     56       0.8018      1.00000
     57       0.8659      1.00000
     58       1.3052      1.00000
     59       1.6701      1.00000
     60       1.6984      1.00000
     61       3.2005      0.00000
     62       3.3357      0.00000
     63       3.6486      0.00000
     64       3.6633      0.00000
     65       4.0117      0.00000
     66       4.1732      0.00000
     67       7.1952      0.00000
     68       7.4798      0.00000
     69       8.8642      0.00000
     70       9.4234      0.00000
     71       9.4783      0.00000
     72      10.0273      0.00000
     73      11.2197      0.00000
     74      11.4632      0.00000
     75      11.6700      0.00000

 soft charge-density along one line, spin component           1
         0         1         2         3         4         5         6         7         8         9
 total charge-density along one line

 soft charge-density along one line, spin component           2
         0         1         2         3         4         5         6         7         8         9
 total charge-density along one line

------------------------ aborting loop because EDIFF is reached ----------------------------------------

 total charge

# of ion       s       p       d       tot
    1        2.026   5.875   0.229   8.131
    2        0.252   6.227   7.880  14.358
    3        0.356   6.378   7.749  14.483
    4        0.356   6.378   7.749  14.483
    5        0.355   6.377   7.748  14.481
    6        1.593   3.382   0.000   4.975
    7        1.593   3.382   0.000   4.975
    8        1.584   3.458   0.000   5.042
    9        1.584   3.457   0.000   5.040
   10        1.584   3.457   0.000   5.040
   11        1.584   3.458   0.000   5.042
   12        1.584   3.457   0.000   5.040
   13        1.584   3.457   0.000   5.041
tot         16.033  58.742  31.355 106.130

 magnetization (x)

[...]

  FORCE on cell =-STRESS in cart. coord.  units (eV):
  Direction    XX          YY          ZZ          XY          YZ          ZX
  Alpha Z   584.95731   584.95731   584.95731
  Ewald     503.12249   501.95120 -9183.92703     1.45145     8.78212    14.78551
  Hartree  5775.46948  5775.21089 -2514.83773     0.46509     7.11877    12.06873
  E(xc)    -824.52623  -824.53260  -823.57259     0.00579     0.00597     0.00967
  Local   -8387.70342 -8386.44530  9545.17065    -1.75567   -15.79915   -26.68188
  n-local  -542.81354  -542.81148  -550.66522     0.00267     0.01574     0.01997
  augment   840.48156   840.37205   852.15227     0.09151     0.07800     0.14010
  Kinetic  2050.99622  2051.29695  2090.71618    -0.26751    -0.15705    -0.27796
  Fock        0.00000     0.00000     0.00000     0.00000     0.00000     0.00000
  Total      -0.01613    -0.00096    -0.00616    -0.00669     0.04440     0.06413
  in kB      -0.16890    -0.01002    -0.06452    -0.07003     0.46505     0.67172

 VOLUME and BASIS-vectors are now :
  energy-cutoff  :      520.00
  volume of cell :      152.97
      direct lattice vectors                 reciprocal lattice vectors
    -2.824135115 -4.880443219 -0.007435899     0.000122770 -0.205062017  0.060088346
    -5.638673907 -0.005541768 -0.007391537    -0.177526300  0.102636470  0.060085829
    -2.828246166 -1.632927474 -5.566872738     0.000235550  0.000137632 -0.179794111

  length of vectors
     5.638663003  5.638681475  6.454107266     0.213684476  0.213682332  0.179794318

 FORCES acting on ions
    electron-ion (+dipol)            ewald-force                    non-local-force                 convergence-correction
   0.946E-02 -.142E-01 -.166E-02   -.981E-02 0.148E-01 0.155E-02   0.250E-03 -.533E-03 0.123E-03   0.200E-05 0.740E-06 0.242E-05
   -.354E-01 0.617E-01 0.874E-03   0.373E-01 -.649E-01 -.741E-03   -.194E-02 0.320E-02 -.227E-04   0.458E-06 0.455E-06 -.746E-05
   0.229E+00 0.617E-01 0.164E-01   -.193E+00 -.632E-01 -.147E-01   -.333E-01 0.200E-02 -.209E-02   -.103E-04 0.301E-04 0.867E-05
   -.156E+00 -.172E+00 -.180E-01   0.139E+00 0.141E+00 0.165E-01   0.150E-01 0.299E-01 0.212E-02   0.307E-04 -.799E-05 0.159E-04
   -.252E-01 0.293E-01 0.147E-02   0.348E-02 0.854E-02 -.138E-02   0.213E-01 -.371E-01 0.255E-04   -.204E-04 -.209E-04 0.444E-05
   0.606E-01 -.354E-01 -.684E+03   -.518E-01 0.438E-01 0.709E+03   -.149E-01 -.107E-01 -.253E+02   0.143E-03 0.320E-03 0.809E-03
   -.346E-01 -.641E-02 0.684E+03   0.244E-01 0.167E-03 -.709E+03   0.167E-01 0.783E-02 0.253E+02   -.144E-03 -.321E-03 -.808E-03
   -.104E+03 -.601E+02 -.602E+03   0.111E+03 0.642E+02 0.620E+03   -.714E+01 -.412E+01 -.178E+02   0.212E-03 -.132E-03 0.104E-02
   0.124E+01 0.121E+03 -.603E+03   -.128E+01 -.129E+03 0.620E+03   0.263E-01 0.817E+01 -.179E+02   -.162E-03 0.308E-04 0.759E-03
   0.105E+03 -.594E+02 -.602E+03   -.112E+03 0.635E+02 0.620E+03   0.708E+01 -.407E+01 -.179E+02   -.254E-03 -.292E-03 0.890E-03
   0.104E+03 0.603E+02 0.602E+03   -.111E+03 -.644E+02 -.620E+03   0.713E+01 0.413E+01 0.178E+02   -.209E-03 0.133E-03 -.104E-02
   -.111E+01 -.121E+03 0.602E+03   0.112E+01 0.129E+03 -.620E+03   -.157E-01 -.817E+01 0.179E+02   0.162E-03 -.346E-04 -.756E-03
   -.105E+03 0.593E+02 0.603E+03   0.112E+03 -.633E+02 -.620E+03   -.709E+01 0.406E+01 0.179E+02   0.252E-03 0.295E-03 -.888E-03
   0.998E-03 -.122E-02 -.892E-04   0.284E-13 0.000E+00 -.341E-12   0.119E-02 -.221E-02 -.402E-03   0.119E-05 0.145E-05 0.337E-04

 POSITION                                       TOTAL-FORCE (eV/Angst)
     -5.64554     -3.25944     -2.79085        -0.000267      0.000376      0.000053
     -5.63866     -0.00556     -0.00739        -0.000150      0.000241      0.000140
     -5.64328     -4.88317     -0.01116         0.001500      0.000739     -0.000252
     -4.24045     -4.07329     -5.57057        -0.001471     -0.000893      0.000566
     -4.23143     -2.44295     -0.00742        -0.000462      0.000923      0.000146
     -8.46988     -4.89022     -4.62443        -0.006097     -0.001713     -0.004313
     -2.82119     -1.62866     -0.95728         0.006186      0.001531      0.004361
     -4.32930     -2.49954     -4.57841        -0.014540     -0.008307     -0.006967
     -5.65022     -4.78309     -4.58133        -0.004816      0.004689     -0.004203
     -6.96736     -2.50190     -4.58144         0.002358     -0.004613     -0.003736
     -6.96182     -4.01926     -1.00327         0.015069      0.007362      0.006716
     -5.64075     -1.73582     -1.00034         0.003442     -0.005499      0.005094
     -4.32374     -4.01709     -1.00029        -0.000752      0.005162      0.002396
    total drift:                                0.002188     -0.003429     -0.000458

  FREE ENERGIE OF THE ION-ELECTRON SYSTEM (eV)
  free  energy   TOTEN  =      -137.72599787 eV

  energy  without entropy=     -137.72599787  energy(sigma->0) =     -137.72599787

 reached required accuracy - stopping structural energy minimisation

 total charge

[...]

 magnetization (x)

# of ion       s       p       d       tot
    1        0.001   0.003   0.011   0.014
    2       -0.000  -0.000   1.730   1.729
    3       -0.003  -0.002  -0.064  -0.068
    4       -0.003  -0.002  -0.064  -0.068
    5       -0.003  -0.002  -0.064  -0.069
    6       -0.000   0.024   0.000   0.024
    7       -0.000   0.024   0.000   0.024
    8        0.005   0.054   0.000   0.059
    9        0.005   0.055   0.000   0.060
   10        0.005   0.055   0.000   0.060
   11        0.005   0.054   0.000   0.059
   12        0.005   0.055   0.000   0.060
   13        0.005   0.055   0.000   0.060
tot          0.022   0.373   1.549   1.944