 vasp.6.1.2 22Jul20 (build Feb 09 2022 12:23:39) complex

 executed on             LinuxIFC date 2022.03.25  10:41:38

 INCAR:
 POTCAR:    PAW_PBE Ca_sv 06Sep2000
 POTCAR:    PAW_PBE Fe_pv 02Aug2007
 POTCAR:    PAW_PBE P 06Sep2000
 POTCAR:    PAW_PBE O 08Apr2002
 POTCAR:    PAW_PBE Ca_sv 06Sep2000
   VRHFIN =Ca: 3s3p4s

   TITEL  = PAW_PBE Ca_sv 06Sep2000
   POMASS =   40.078; ZVAL   =   10.000    mass and valenz
   ENMAX  =  266.622; ENMIN  =  199.967 eV

   TITEL  = PAW_PBE Fe_pv 02Aug2007
   POMASS =   55.847; ZVAL   =   14.000    mass and valenz
   ENMAX  =  293.238; ENMIN  =  219.928 eV

   TITEL  = PAW_PBE P 06Sep2000
   POMASS =   30.974; ZVAL   =    5.000    mass and valenz
   ENMAX  =  255.040; ENMIN  =  191.280 eV

   TITEL  = PAW_PBE O 08Apr2002
   POMASS =   16.000; ZVAL   =    6.000    mass and valenz
   ENMAX  =  400.000; ENMIN  =  300.000 eV

 Optimization of the real space projectors (new method)

 maximal supplied QI-value         = 16.25
 optimisation between [QCUT,QGAM] = [ 11.54, 23.24] = [ 37.28,151.24] Ry
 Optimized for a Real-space Cutoff    1.58 Angstroem

   l    n(q)    QCUT    max X(q) W(low)/X(q) W(high)/X(q)  e(spline)
   0     11    11.539    11.817    0.25E-04    0.22E-05    0.26E-07
   0     11    11.539     8.461    0.39E-04    0.49E-05    0.55E-07
   1     11    11.539     3.957    0.21E-05    0.44E-05    0.32E-07
   1     11    11.539     4.314    0.56E-04    0.44E-04    0.19E-06
   2     10    11.539    14.565    0.25E-03    0.21E-04    0.75E-06
   2     10    11.539    14.552    0.23E-03    0.22E-04    0.72E-06
 Optimization of the real space projectors (new method)

[...]

   l    n(q)    QCUT    max X(q) W(low)/X(q) W(high)/X(q)  e(spline)
   0      8    11.508   160.924    0.96E-04    0.17E-03    0.52E-07
   0      8    11.508   130.086    0.95E-04    0.17E-03    0.51E-07
   1      8    11.508    74.434    0.16E-03    0.74E-04    0.91E-07
   1      8    11.508    49.120    0.16E-03    0.71E-04    0.89E-07
 Optimization of the real space projectors (new method)

 maximal supplied QI-value         = 24.76
 optimisation between [QCUT,QGAM] = [ 11.64, 23.27] = [ 37.91,151.63] Ry
 Optimized for a Real-space Cutoff    1.14 Angstroem

   l    n(q)    QCUT    max X(q) W(low)/X(q) W(high)/X(q)  e(spline)
   0      8    11.635    20.381    0.10E-03    0.33E-03    0.24E-06
   0      8    11.635    15.268    0.11E-03    0.35E-03    0.26E-06
   1      7    11.635     5.964    0.24E-03    0.31E-03    0.30E-06
   1      7    11.635     5.382    0.22E-03    0.25E-03    0.26E-06
  PAW_PBE Ca_sv 06Sep2000               :
  PAW_PBE Fe_pv 02Aug2007               :
  PAW_PBE P 06Sep2000                   :
  PAW_PBE O 08Apr2002                   :

 POSCAR: Ca1 Fe4 P6 O24
  positions in direct lattice
  velocities in cartesian coordinates

 METAGGA = SCAN     LMAXTAU =  6    LMIXTAU =  F

 ion  position               nearest neighbor table
   1  0.498  0.498  0.498-  14 2.38  12 2.38  16 2.38  23 2.39  19 2.39  21 2.39
   2  0.644  0.644  0.644-  29 1.93  27 1.93  25 1.93  16 2.06  12 2.06  14 2.06
   3  0.150  0.150  0.150-  17 1.84  13 1.84  15 1.84  24 1.84  26 1.84  28 1.84
   4  0.845  0.845  0.845-  35 1.84  31 1.84  33 1.84  18 1.84  20 1.84  22 1.84
   5  0.351  0.351  0.351-  30 1.93  34 1.93  32 1.93  21 2.06  19 2.06  23 2.06
   6  0.236  0.538  0.961-  30 1.50  14 1.52  22 1.54  24 1.57
   7  0.034  0.758  0.457-  25 1.50  21 1.52  17 1.54  31 1.57
   8  0.961  0.236  0.538-  32 1.50  16 1.52  18 1.54  26 1.57
   9  0.457  0.034  0.758-  27 1.50  23 1.52  13 1.54  33 1.57
  10  0.538  0.961  0.236-  34 1.50  12 1.52  20 1.54  28 1.57
  11  0.758  0.457  0.034-  29 1.50  19 1.52  15 1.54  35 1.57
  12  0.616  0.748  0.377-  10 1.52   2 2.06   1 2.38
  13  0.320  0.007  0.981-   9 1.54   3 1.84
  14  0.377  0.616  0.748-   6 1.52   2 2.06   1 2.38
  15  0.981  0.320  0.007-  11 1.54   3 1.84
  16  0.748  0.377  0.616-   8 1.52   2 2.06   1 2.38
  17  0.007  0.981  0.320-   7 1.54   3 1.84
  18  0.988  0.014  0.675-   8 1.54   4 1.84
  19  0.618  0.379  0.247-  11 1.52   5 2.06   1 2.39
  20  0.675  0.988  0.014-  10 1.54   4 1.84
  21  0.247  0.618  0.379-   7 1.52   5 2.06   1 2.39
  22  0.014  0.675  0.988-   6 1.54   4 1.84
  23  0.379  0.247  0.618-   9 1.52   5 2.06   1 2.39
  24  0.284  0.326  0.980-   6 1.57   3 1.84
  25  0.877  0.720  0.475-   7 1.50   2 1.93
  26  0.980  0.284  0.326-   8 1.57   3 1.84
  27  0.475  0.877  0.720-   9 1.50   2 1.93
  28  0.326  0.980  0.284-  10 1.57   3 1.84
  29  0.720  0.475  0.877-  11 1.50   2 1.93
  30  0.275  0.520  0.119-   6 1.50   5 1.93
  31  0.015  0.711  0.669-   7 1.57   4 1.84
  32  0.119  0.275  0.520-   8 1.50   5 1.93
  33  0.669  0.015  0.711-   9 1.57   4 1.84
  34  0.520  0.119  0.275-  10 1.50   5 1.93
  35  0.711  0.669  0.015-  11 1.57   4 1.84

IMPORTANT INFORMATION: All symmetrisations will be switched off!
NOSYMM: (Re-)initialisation of all symmetry stuff for point group C_1.

                                     Primitive cell

  volume of cell :     412.9357

  direct lattice vectors                    reciprocal lattice vectors
     2.726641328  6.859587773  4.669137477    -0.003145950  0.150640812 -0.005302049
     0.446750108  0.316138352  8.716985341    -0.073945780 -0.052570216  0.120414880
     7.375305754  0.318325223  4.668087214     0.141229828 -0.052507344 -0.005333823

  length of vectors
     8.734378176  8.734149217  8.734271816     0.150766916  0.150769192  0.150769145

  position of ions in fractional coordinates (direct lattice)
     0.497643912  0.497654273  0.497660476
     0.643744125  0.643740770  0.643742925
     0.149520128  0.149535133  0.149521148
     0.845129340  0.845132778  0.845124903
     0.351111542  0.351114254  0.351111732
     0.236237639  0.537725957  0.961375717
     0.033875970  0.758383556  0.457305023
     0.961377439  0.236234650  0.537728770
     0.457308489  0.033871471  0.758385407
     0.537733645  0.961370814  0.236238246
     0.758380903  0.457309082  0.033877329
     0.616449817  0.748408117  0.377027663
     0.320451328  0.006807840  0.980711586
     0.377010957  0.616454653  0.748407040
     0.980702857  0.320461506  0.006794240
     0.748415022  0.377018121  0.616451589
     0.006814984  0.980712772  0.320467192
     0.987942310  0.014145314  0.674784704
     0.618006547  0.378502667  0.246994115
     0.674793174  0.987954448  0.014143186
     0.246988579  0.618005237  0.378500721
     0.014161877  0.674781513  0.987947666
     0.378506807  0.246984261  0.618007057
     0.284189321  0.325635694  0.979840367
     0.876521154  0.719671774  0.475466631
     0.979859190  0.284207382  0.325621251
     0.475466771  0.876524414  0.719656525
     0.325636675  0.979836647  0.284216792
     0.719649695  0.475485273  0.876524499
     0.274947555  0.519838946  0.118634595
     0.015330569  0.710540776  0.669443444
     0.118624568  0.274940215  0.519863533
     0.669445331  0.015339736  0.710541438
     0.519868438  0.118617589  0.274951366
     0.710553339  0.669452367  0.015331124

  ion indices of the primitive-cell ions
   primitive index   ion index
                 1           1
                 2           2
                 3           3
                 4           4
                 5           5
                 6           6
                 7           7
                 8           8
                 9           9
                10          10
                11          11
                12          12
                13          13
                14          14
                15          15
                16          16
                17          17
                18          18
                19          19
                20          20
                21          21
                22          22
                23          23
                24          24
                25          25
                26          26
                27          27
                28          28
                29          29
                30          30
                31          31
                32          32
                33          33
                34          34
                35          35

 KPOINTS: Fully automatic kpoint scheme

Automatic generation of k-mesh.
 generate k-points for:    5    5    5
Space group operators:
 irot       det(A)        alpha          n_x          n_y          n_z        tau_x        tau_y        tau_z
    1     1.000000     0.000000     1.000000     0.000000     0.000000     0.000000     0.000000     0.000000

 Subroutine IBZKPT returns following result:

 Found     63 irreducible k-points:

 Following reciprocal coordinates:
            Coordinates               Weight
  0.000000  0.000000  0.000000      1.000000
  0.200000 -0.000000 -0.000000      2.000000
  0.000000 -0.200000  0.000000      2.000000
  0.400000 -0.000000 -0.000000      2.000000
 -0.000000 -0.400000  0.000000      2.000000
  0.200000  0.200000 -0.000000      2.000000
  0.400000  0.200000 -0.000000      2.000000
 -0.200000 -0.400000  0.000000      2.000000
 -0.400000  0.200000 -0.000000      2.000000
 -0.200000  0.400000  0.000000      2.000000
 -0.200000  0.200000 -0.000000      2.000000
  0.400000  0.400000 -0.000000      2.000000
 -0.400000  0.400000 -0.000000      2.000000
 -0.000000  0.000000  0.200000      2.000000
  0.200000  0.000000  0.200000      2.000000
 -0.000000 -0.200000 -0.200000      2.000000
  0.400000 -0.000000  0.200000      2.000000
  0.000000 -0.400000 -0.200000      2.000000
 -0.400000  0.000000  0.200000      2.000000
  0.000000  0.400000 -0.200000      2.000000
 -0.200000  0.000000  0.200000      2.000000
  0.000000  0.200000 -0.200000      2.000000
  0.200000  0.200000  0.200000      2.000000
  0.400000  0.200000  0.200000      2.000000
 -0.200000 -0.400000 -0.200000      2.000000
 -0.400000  0.200000  0.200000      2.000000
 -0.200000  0.400000 -0.200000      2.000000
 -0.200000  0.200000  0.200000      2.000000
 -0.200000  0.200000 -0.200000      2.000000
  0.400000  0.400000  0.200000      2.000000
 -0.400000  0.400000  0.200000      2.000000
 -0.400000  0.400000 -0.200000      2.000000
 -0.200000  0.400000  0.200000      2.000000
 -0.400000  0.200000 -0.200000      2.000000
 -0.400000 -0.400000  0.200000      2.000000
 -0.200000 -0.400000  0.200000      2.000000
  0.400000  0.200000 -0.200000      2.000000
 -0.200000 -0.200000  0.200000      2.000000
  0.000000  0.000000  0.400000      2.000000
  0.200000 -0.000000  0.400000      2.000000
  0.000000 -0.200000 -0.400000      2.000000
  0.400000  0.000000  0.400000      2.000000
  0.000000 -0.400000 -0.400000      2.000000
 -0.400000  0.000000  0.400000      2.000000
 -0.000000  0.400000 -0.400000      2.000000
 -0.200000  0.000000  0.400000      2.000000
  0.000000  0.200000 -0.400000      2.000000
  0.200000  0.200000  0.400000      2.000000
  0.400000  0.200000  0.400000      2.000000
 -0.200000 -0.400000 -0.400000      2.000000
 -0.400000  0.200000  0.400000      2.000000
 -0.200000  0.400000 -0.400000      2.000000
 -0.200000  0.200000  0.400000      2.000000
 -0.200000  0.200000 -0.400000      2.000000
[...]
      5.29659      0.54289      9.39037         0.000132     -0.012214     -0.001088
      4.28043      1.06612      5.37729         0.001265      0.005103     -0.004818
      7.07265      4.82315      6.57632         0.004450      0.002965     -0.010632
      3.49834      3.69111      4.74482        -0.007280     -0.000865      0.002430
      2.34957      5.09062      9.22484        -0.011931      0.003016     -0.000829
    total drift:                               -0.099182     -0.068464     -0.172876

  FREE ENERGIE OF THE ION-ELECTRON SYSTEM (eV)
  free  energy   TOTEN  =      -369.05384408 eV

  energy  without entropy=     -369.05384408  energy(sigma->0) =     -369.05384408

[...]

 d Force =-0.3907900E-03[-0.136E-02, 0.576E-03]  d Energy =-0.8248752E-03 0.434E-03
 d Force =-0.1080504E+01[-0.109E+01,-0.107E+01]  d Ewald  =-0.2210662E+01 0.113E+01

 Steepest descent step on ions:
 trial-energy change:    0.000825  1 .order    0.000405   -0.000610    0.001420
  (g-gl).g = 0.610E-03      g.g   = 0.610E-03  gl.gl    = 0.000E+00
 g(Force)  = 0.576E-03   g(Stress)= 0.335E-04 ortho     = 0.000E+00
 gamma     =   0.00000
 trial     =   1.00000
 opt step  =   0.30055  (harmonic =   0.30055) maximal distance =0.00035421
 next E    =  -369.053936   (d E  =  -0.00009)

 real space projection operators:
  max/ min on nodes  :        831.45        583.64

[...]

 eigenvalue-minimisations  :     0
 total energy-change (2. order) : 0.8405944E-02  (-0.6423443E-02)
 number of electron     239.9999994 magnetization      16.0000003
 augmentation part       49.0623507 magnetization      10.9255378

[...]

--------------------------------------- Iteration      3(   7)  ---------------------------------------

 eigenvalue-minimisations  :     0
 total energy-change (2. order) :-0.1199674E-05  (-0.3144422E-05)
 number of electron     239.9999994 magnetization      16.0000003
 augmentation part       49.0643678 magnetization      10.9248700

 Free energy of the ion-electron system (eV)
  alpha Z        PSCENC =       674.84414189
  Ewald energy   TEWEN  =    -12726.71912175
  -Hartree energ DENC   =     -8614.72987778
  -exchange      EXHF   =         0.00000000
  -V(xc)+E(xc)   XCENC  =      1273.35082075
  PAW double counting   =     40048.50867827   -40538.94324271
  entropy T*S    EENTRO =        -0.00000000
  eigenvalues    EBANDS =     -2753.96760231
  atomic energy  EATOM  =     22268.60300644
  free energy    TOTEN  =      -369.05319720 eV

  energy without entropy =     -369.05319720  energy(sigma->0) =     -369.05319720

  average scaling for gradient   0.8108

 average (electrostatic) potential at core
  the test charge radii are     1.1137  0.9500  0.9587  0.7215
  (the norm of the test charge is              1.0000)
       1 -49.2101       2 -88.5216       3 -89.6535       4 -89.6536       5 -88.5187
       6 -90.3288       7 -90.3334       8 -90.3291       9 -90.3333      10 -90.3288
      11 -90.3332      12 -76.1487      13 -76.6522      14 -76.1485      15 -76.6519
      16 -76.1488      17 -76.6524      18 -76.6357      19 -76.1446      20 -76.6353
      21 -76.1448      22 -76.6350      23 -76.1447      24 -76.8365      25 -76.0890
      26 -76.8365      27 -76.0894      28 -76.8357      29 -76.0894      30 -76.0893
      31 -76.8517      32 -76.0888      33 -76.8519      34 -76.0890      35 -76.8519

 E-fermi :   1.8391     XC(G=0): -10.5693     alpha+bet :-10.2166

[...]

 spin component 2

[...]

 k-point    63 :      -0.2000   -0.2000    0.4000
  band No.  band energies     occupation
      1     -53.9355      1.00000
      2     -53.9349      1.00000
      3     -53.9303      1.00000
      4     -53.9292      1.00000
      5     -53.8984      1.00000
      6     -53.8954      1.00000
      7     -51.2334      1.00000
      8     -51.2332      1.00000
      9     -51.2328      1.00000
     10     -51.2326      1.00000
     11     -51.2038      1.00000
     12     -51.1992      1.00000
     13     -38.1285      1.00000
     14     -20.4974      1.00000
     15     -20.3962      1.00000
     16     -20.2918      1.00000
     17     -20.2349      1.00000
     18     -20.1951      1.00000
     19     -20.1775      1.00000
     20     -18.6855      1.00000
     21     -18.4666      1.00000
     22     -18.4374      1.00000
     23     -18.3630      1.00000
     24     -18.1321      1.00000
     25     -17.9485      1.00000
     26     -17.8920      1.00000
     27     -17.8571      1.00000
     28     -17.8424      1.00000
     29     -17.7877      1.00000
     30     -17.7335      1.00000
     31     -17.6755      1.00000
     32     -17.6382      1.00000
     33     -17.5826      1.00000
     34     -17.5391      1.00000
     35     -17.5339      1.00000
     36     -17.5256      1.00000
     37     -17.4981      1.00000
     38     -17.3923      1.00000
     39     -17.3209      1.00000
     40     -17.2246      1.00000
     41      -7.4073      1.00000
     42      -7.1746      1.00000
     43      -7.1469      1.00000
     44      -7.0358      1.00000
     45      -6.7731      1.00000
     46      -6.6549      1.00000
     47      -5.6810      1.00000
     48      -5.4319      1.00000
     49      -5.2168      1.00000
     50      -5.1800      1.00000
     51      -4.9527      1.00000
     52      -4.8448      1.00000
     53      -4.7398      1.00000
     54      -4.5365      1.00000
     55      -4.4684      1.00000
     56      -4.3679      1.00000
     57      -4.3535      1.00000
     58      -4.1842      1.00000
     59      -4.1178      1.00000
     60      -4.0347      1.00000
[...]
    146      12.0260      0.00000
    147      12.0864      0.00000
    148      12.1615      0.00000
    149      12.2730      0.00000
    150      12.4048      0.00000
    151      12.5082      0.00000
    152      12.6111      0.00000
    153      12.6840      0.00000
    154      12.7493      0.00000
    155      12.8869      0.00000
    156      12.9133      0.00000
    157      13.0373      0.00000
    158      13.2864      0.00000
    159      13.4087      0.00000
    160      13.7193      0.00000

[...]

 soft charge-density along one line, spin component           2
         0         1         2         3         4         5         6         7         8         9
 total charge-density along one line

------------------------ aborting loop because EDIFF is reached ----------------------------------------

[...]

  FORCE on cell =-STRESS in cart. coord.  units (eV):
  Direction    XX          YY          ZZ          XY          YZ          ZX
  Alpha Z   674.84414   674.84414   674.84414
  Ewald   -4248.67280 -4255.58443 -4222.51753     9.37516    16.44029    22.99734
  Hartree  2884.47283  2897.64172  2832.61390   -19.18627   -32.70300   -46.09218
  E(xc)   -1315.43718 -1315.45131 -1315.37824     0.02021     0.03587     0.05032
  Local   -2555.50116 -2561.84838 -2529.49585     9.91260    16.45686    23.35791
  n-local  -407.45437  -407.57131  -407.02025     0.20595     0.30376     0.41321
  augment   765.67460   765.47167   766.46066     0.26269     0.47986     0.69623
  Kinetic  4202.05827  4202.46749  4200.53128    -0.57432    -0.98241    -1.37748
  Fock        0.00000     0.00000     0.00000     0.00000     0.00000     0.00000
  Total      -0.01567    -0.03041     0.03811     0.01602     0.03124     0.04535
  in kB      -0.06078    -0.11796     0.14786     0.06215     0.12118     0.17595

 VOLUME and BASIS-vectors are now :
  energy-cutoff  :      520.00
  volume of cell :      412.97
      direct lattice vectors                 reciprocal lattice vectors
     2.726849561  6.859778858  4.669509522    -0.003147311  0.150638730 -0.005303797
     0.446947001  0.316266585  8.717398777    -0.073946243 -0.052570656  0.120411653
     7.375556938  0.318468787  4.668458821     0.141227612 -0.052507609 -0.005335864

  length of vectors
     8.734792137  8.734576556  8.734687760     0.150764926  0.150766995  0.150767234

 FORCES acting on ions:
    Electron-Ion                     Ewald-Force                    Non-Local-Force
   0.592E+00 0.397E+00 0.100E+01   -.597E+00 -.401E+00 -.101E+01   0.461E-02 0.407E-02 0.833E-02
   -.634E+01 -.451E+01 -.108E+02   0.800E+01 0.568E+01 0.136E+02   -.164E+01 -.117E+01 -.281E+01
   0.919E+02 0.653E+02 0.157E+03   -.921E+02 -.654E+02 -.158E+03   0.197E+00 0.142E+00 0.324E+00
   -.916E+02 -.650E+02 -.157E+03   0.918E+02 0.652E+02 0.157E+03   -.269E+00 -.184E+00 -.471E+00
   0.570E+01 0.404E+01 0.974E+01   -.735E+01 -.522E+01 -.126E+02   0.164E+01 0.117E+01 0.281E+01
   -.424E+01 0.576E+01 -.805E+02   0.454E+01 -.337E+01 0.834E+02   -.311E+00 -.249E+01 -.303E+01
   0.723E+02 0.547E+01 0.362E+02   -.737E+02 -.496E+01 -.398E+02   0.142E+01 -.543E+00 0.370E+01
   -.721E+02 -.590E+01 -.360E+02   0.735E+02 0.539E+01 0.395E+02   -.143E+01 0.526E+00 -.363E+01
   0.173E+02 0.665E+02 0.430E+02   -.204E+02 -.679E+02 -.447E+02   0.324E+01 0.153E+01 0.178E+01
   -.169E+02 -.661E+02 -.432E+02   0.200E+02 0.676E+02 0.449E+02   -.318E+01 -.152E+01 -.176E+01
   0.386E+01 -.553E+01 0.808E+02   -.417E+01 0.308E+01 -.837E+02   0.315E+00 0.256E+01 0.306E+01
   0.746E+02 -.904E+02 0.269E+02   -.527E+02 0.107E+03 -.486E+02   -.219E+02 -.163E+02 0.217E+02
   0.639E+02 0.141E+02 0.268E+03   -.368E+02 -.275E+02 -.280E+03   -.272E+02 0.134E+02 0.123E+02
   0.532E+02 0.100E+03 -.397E+02   -.833E+02 -.848E+02 0.488E+02   0.300E+02 -.153E+02 -.906E+01
   0.216E+03 0.557E+02 0.161E+03   -.225E+03 -.257E+02 -.171E+03   0.888E+01 -.301E+02 0.930E+01
   -.896E+02 0.173E+02 0.782E+02   0.953E+02 -.507E+02 -.697E+02   -.564E+01 0.334E+02 -.845E+01
   0.797E+02 0.186E+03 0.187E+03   -.100E+03 -.204E+03 -.169E+03   0.206E+02 0.183E+02 -.176E+02
   -.802E+02 -.186E+03 -.187E+03   0.101E+03 0.204E+03 0.170E+03   -.208E+02 -.182E+02 0.176E+02
   -.540E+02 -.992E+02 0.397E+02   0.842E+02 0.838E+02 -.488E+02   -.302E+02 0.154E+02 0.902E+01
   -.641E+02 -.146E+02 -.268E+03   0.370E+02 0.283E+02 0.280E+03   0.271E+02 -.136E+02 -.122E+02
   0.893E+02 -.184E+02 -.776E+02   -.949E+02 0.519E+02 0.691E+02   0.560E+01 -.336E+02 0.843E+01
   -.216E+03 -.557E+02 -.162E+03   0.225E+03 0.256E+02 0.171E+03   -.872E+01 0.301E+02 -.944E+01
   -.735E+02 0.904E+02 -.276E+02   0.515E+02 -.107E+03 0.494E+02   0.220E+02 0.163E+02 -.219E+02
   0.124E+03 -.174E+03 -.935E+02   -.130E+03 0.193E+03 0.694E+02   0.596E+01 -.190E+02 0.242E+02
   0.192E+03 -.826E+02 -.374E+00   -.208E+03 0.619E+02 -.223E+02   0.154E+02 0.207E+02 0.227E+02
   -.211E+02 0.175E+03 -.153E+03   -.778E+01 -.186E+03 0.155E+03   0.289E+02 0.119E+02 -.203E+01
   0.685E+01 0.209E+03 -.130E+02   -.146E+02 -.217E+03 -.196E+02   0.771E+01 0.773E+01 0.326E+02
   -.211E+03 -.774E+02 0.624E+02   0.223E+03 0.540E+02 -.794E+02   -.119E+02 0.234E+02 0.171E+02
   -.109E+03 -.623E+02 0.167E+03   0.857E+02 0.575E+02 -.192E+03   0.236E+02 0.474E+01 0.246E+02
   0.110E+03 0.630E+02 -.168E+03   -.861E+02 -.583E+02 0.192E+03   -.235E+02 -.471E+01 -.247E+02
   0.213E+02 -.176E+03 0.153E+03   0.752E+01 0.188E+03 -.155E+03   -.289E+02 -.120E+02 0.201E+01
   -.193E+03 0.827E+02 0.941E+00   0.208E+03 -.621E+02 0.217E+02   -.155E+02 -.206E+02 -.227E+02
   0.212E+03 0.781E+02 -.634E+02   -.224E+03 -.548E+02 0.805E+02   0.120E+02 -.233E+02 -.172E+02
   -.632E+01 -.209E+03 0.132E+02   0.140E+02 0.217E+03 0.194E+02   -.773E+01 -.787E+01 -.326E+02
   -.126E+03 0.174E+03 0.939E+02   0.132E+03 -.193E+03 -.698E+02   -.608E+01 0.190E+02 -.242E+02
   0.137E+00 0.594E-01 0.254E+00   -.199E-12 0.568E-13 -.199E-12   -.237E+00 -.129E+00 -.426E+00

 POSITION                                       TOTAL-FORCE (eV/Angst)
      5.24999      3.72964      8.98538         0.001849      0.001578      0.003494
      6.79100      4.82449     11.62289         0.002065      0.001631      0.003819
      1.57728      1.12053      2.69961        -0.005615     -0.004276     -0.011298
      8.91574      6.33399     15.25945        -0.000564     -0.001116     -0.000795
      3.70409      2.63147      6.33958         0.003483      0.002526      0.005984
      7.97514      2.09697     10.27895        -0.001091     -0.012196     -0.004489
      3.80427      0.61799      8.90422        -0.000182     -0.002532      0.015066
      6.69318      6.84068      9.05908         0.002199      0.003444     -0.011481
      6.85558      3.38928      5.97127         0.013947      0.000763      0.005867
      3.63862      4.06807     11.99449        -0.012212      0.001119     -0.001705
      2.52234      5.35766      7.68602         0.001915      0.013447      0.007664
      4.79616      4.58553     11.16275        -0.001722      0.003710     -0.004934
      8.11040      2.51241      6.13423        -0.003945     -0.000076      0.000068
      6.82343      3.01945     10.62823        -0.005471     -0.001600      0.000408
      2.86777      6.83124      7.40459         0.001125     -0.003964     -0.001188
      6.75603      5.44948      9.65912         0.001935     -0.004585     -0.003441
      2.82025      0.45907     10.07744         0.000514      0.002536     -0.003802
      7.67755      6.99635      7.88626        -0.002070     -0.001271      0.000173
      3.67613      4.43791      7.33843         0.003718      0.005108     -0.000102
      2.38553      4.94625     11.82917         0.000839     -0.001503     -0.001972
      3.74129      2.01027      8.30787        -0.003426      0.001940      0.005165
      7.62662      0.62465     10.56075        -0.000231      0.000184     -0.001417
      5.70080      2.87133      6.80568         0.004101     -0.003734      0.003182
      8.14749      2.36443      8.73981         0.001137     -0.003528      0.005516
      6.21864      6.39186     12.58636         0.002682      0.007092      0.007786
      5.20041      6.91536      8.57302         0.007047      0.002077      0.000088
      6.99619      3.76799     13.22102         0.003437      0.000294      0.010746
      3.42198      2.63398     11.38905        -0.001926      0.006249      0.003510
      8.63986      5.36619     11.59748         0.008633      0.002871      0.006275
      1.85711      2.08817      6.36933        -0.000839     -0.005066     -0.003069
      5.29690      0.54290      9.39091        -0.010750     -0.004875     -0.005194
      4.28066      1.06633      5.37757        -0.000338      0.001264     -0.006084
      7.07304      4.82343      6.57668        -0.000280     -0.008874     -0.009657
      3.49843      3.69125      4.74520        -0.005924     -0.000642     -0.002195
      2.34968      5.09089      9.22538        -0.004036      0.002001     -0.011988
    total drift:                               -0.099445     -0.069950     -0.171301

  FREE ENERGIE OF THE ION-ELECTRON SYSTEM (eV)
  free  energy   TOTEN  =      -369.05319720 eV

  energy  without entropy=     -369.05319720  energy(sigma->0) =     -369.05319720

 d Force = 0.4764607E-03[ 0.312E-05, 0.950E-03]  d Energy = 0.1779969E-03 0.298E-03
 d Force = 0.7581530E+00[ 0.752E+00, 0.764E+00]  d Ewald  = 0.1548696E+01-0.791E+00

 reached required accuracy - stopping structural energy minimisation

 total charge

[...]

 magnetization (x)

# of ion       s       p       d       tot
    1        0.000   0.000   0.000   0.001
    2        0.010   0.022   4.175   4.208
    3        0.005   0.020   2.453   2.479
    4        0.005   0.020   2.450   2.475
    5        0.010   0.022   4.175   4.207
    6        0.004   0.009   0.000   0.014
    7        0.004   0.010   0.000   0.014
    8        0.004   0.009   0.000   0.014
    9        0.004   0.010   0.000   0.014
   10        0.004   0.009   0.000   0.014
   11        0.004   0.010   0.000   0.014
   12        0.008   0.061   0.000   0.068
   13        0.005   0.087   0.000   0.093
   14        0.008   0.061   0.000   0.069
   15        0.005   0.087   0.000   0.092
   16        0.008   0.061   0.000   0.069
   17        0.005   0.088   0.000   0.093
   18        0.005   0.086   0.000   0.091
   19        0.008   0.060   0.000   0.068
   20        0.005   0.086   0.000   0.091
   21        0.008   0.060   0.000   0.068
   22        0.005   0.086   0.000   0.091
   23        0.008   0.060   0.000   0.068
   24        0.004   0.050   0.000   0.054
   25        0.012   0.101   0.000   0.112
   26        0.004   0.050   0.000   0.054
   27        0.012   0.101   0.000   0.112
   28        0.004   0.050   0.000   0.053
   29        0.012   0.101   0.000   0.112
   30        0.012   0.101   0.000   0.113
   31        0.004   0.052   0.000   0.055
   32        0.012   0.101   0.000   0.113
   33        0.004   0.051   0.000   0.055
   34        0.012   0.101   0.000   0.113
   35        0.004   0.052   0.000   0.055
tot          0.224   1.937  13.253  15.414