 vasp.6.1.2 22Jul20 (build Mar 19 2021 09:51:12) complex

 executed on             LinuxIFC date 2021.07.23  19:39:46

 INCAR:
 POTCAR:    PAW_PBE Ca_sv 06Sep2000
 POTCAR:    PAW_PBE Ti_pv 07Sep2000
 POTCAR:    PAW_PBE O 08Apr2002
 POTCAR:    PAW_PBE Ca_sv 06Sep2000
   VRHFIN =Ca: 3s3p4s

   TITEL  = PAW_PBE Ca_sv 06Sep2000
   POMASS =   40.078; ZVAL   =   10.000    mass and valenz
   ENMAX  =  266.622; ENMIN  =  199.967 eV

 POTCAR:    PAW_PBE Ti_pv 07Sep2000
   VRHFIN =Ti: d3 s1

   TITEL  = PAW_PBE Ti_pv 07Sep2000
   POMASS =   47.880; ZVAL   =   10.000    mass and valenz
   ENMAX  =  222.335; ENMIN  =  166.751 eV

 POTCAR:    PAW_PBE O 08Apr2002
   VRHFIN =O: s2p4

   TITEL  = PAW_PBE O 08Apr2002
   POMASS =   16.000; ZVAL   =    6.000    mass and valenz
   ENMAX  =  400.000; ENMIN  =  300.000 eV

 Optimization of the real space projectors (new method)

 maximal supplied QI-value         = 16.25
 optimisation between [QCUT,QGAM] = [ 11.54, 23.24] = [ 37.28,151.24] Ry
 Optimized for a Real-space Cutoff    1.58 Angstroem

   l    n(q)    QCUT    max X(q) W(low)/X(q) W(high)/X(q)  e(spline)
   0     11    11.539    11.817    0.25E-04    0.22E-05    0.26E-07
   0     11    11.539     8.461    0.39E-04    0.49E-05    0.55E-07
   1     11    11.539     3.957    0.21E-05    0.44E-05    0.32E-07
   1     11    11.539     4.314    0.56E-04    0.44E-04    0.19E-06
   2     10    11.539    14.565    0.25E-03    0.21E-04    0.75E-06
   2     10    11.539    14.552    0.23E-03    0.22E-04    0.72E-06
 Optimization of the real space projectors (new method)

[...]

   l    n(q)    QCUT    max X(q) W(low)/X(q) W(high)/X(q)  e(spline)
   1     10    11.641     4.216    0.17E-04    0.40E-04    0.50E-07
   1     10    11.641     5.422    0.66E-04    0.10E-03    0.13E-06
   2      9    11.641    72.084    0.68E-04    0.13E-03    0.50E-06
   2      9    11.641    65.965    0.66E-04    0.13E-03    0.50E-06
   0     10    11.641    41.531    0.10E-03    0.87E-04    0.31E-06
   0     10    11.641    16.290    0.75E-04    0.66E-04    0.24E-06
 Optimization of the real space projectors (new method)

 maximal supplied QI-value         = 24.76
 optimisation between [QCUT,QGAM] = [ 11.64, 23.27] = [ 37.91,151.63] Ry
 Optimized for a Real-space Cutoff    1.14 Angstroem

   l    n(q)    QCUT    max X(q) W(low)/X(q) W(high)/X(q)  e(spline)
   0      8    11.635    20.381    0.10E-03    0.33E-03    0.24E-06
   0      8    11.635    15.268    0.11E-03    0.35E-03    0.26E-06
   1      7    11.635     5.964    0.24E-03    0.31E-03    0.30E-06
   1      7    11.635     5.382    0.22E-03    0.25E-03    0.26E-06
  PAW_PBE Ca_sv 06Sep2000               :
  PAW_PBE Ti_pv 07Sep2000               :
  PAW_PBE O 08Apr2002                   :

 POSCAR: Ca2 Ti4 O8
  positions in direct lattice
  velocities in cartesian coordinates

 METAGGA = SCAN     LMAXTAU =  6    LMIXTAU =  F

 ion  position               nearest neighbor table
   1  0.384  0.767  0.247-   9 2.32   9 2.32  14 2.40  14 2.40  12 2.41  12 2.41   5 3.09   3 3.14

   2  0.615  0.231  0.752-  10 2.31  10 2.31  13 2.40  13 2.40  11 2.43  11 2.44   6 3.10   4 3.16

   3  0.128  0.261  0.432-   9 1.98  11 2.05  12 2.12  12 2.13   7 2.15   7 2.16   4 2.94   1 3.14
                             4 3.17
   4  0.871  0.740  0.566-  10 2.01  12 2.04  11 2.11  11 2.12   7 2.12   7 2.12   3 2.94   2 3.16
                             3 3.17
   5  0.133  0.266  0.071-   9 1.99  13 2.03  14 2.11  14 2.11   8 2.17   8 2.17   6 3.04   1 3.09
                             6 3.15   6 3.16
   6  0.868  0.734  0.929-  10 1.96  14 2.04  13 2.11  13 2.11   8 2.18   8 2.18   5 3.04   2 3.10
                             5 3.15   5 3.16
   7  0.498  0.998  0.502-   4 2.12   4 2.12   3 2.15   3 2.16
   8  0.500  0.000  0.001-   5 2.17   5 2.17   6 2.18   6 2.18
   9  0.055  0.108  0.252-   3 1.98   5 1.99   1 2.32   1 2.32
  10  0.945  0.891  0.750-   6 1.96   4 2.01   2 2.31   2 2.31
  11  0.233  0.467  0.607-   3 2.05   4 2.11   4 2.12   2 2.43   2 2.44
  12  0.768  0.538  0.391-   4 2.04   3 2.12   3 2.13   1 2.41   1 2.41
  13  0.230  0.459  0.893-   5 2.03   6 2.11   6 2.11   2 2.40   2 2.40
  14  0.770  0.539  0.107-   6 2.04   5 2.11   5 2.11   1 2.40   1 2.40

IMPORTANT INFORMATION: All symmetrisations will be switched off!
NOSYMM: (Re-)initialisation of all symmetry stuff for point group C_1.

                                     Primitive cell

  volume of cell :     157.5302

  direct lattice vectors                    reciprocal lattice vectors
     0.000135230 -0.000387918  3.107496918     0.099436605 -0.000358440  0.321798039
     5.027441816  0.018491030 -1.553474721     0.198908497 -0.000783981 -0.000008754
     0.039742781 10.083385952 -0.001049088    -0.000360935  0.099174460  0.000012396

  length of vectors
     3.107496945  5.262014523 10.083464327     0.336811141  0.198910043  0.099175118

  position of ions in fractional coordinates (direct lattice)
     0.384119055  0.766691770  0.247485725
     0.615214516  0.230893914  0.752376406
     0.128421336  0.261150738  0.432147505
     0.870547081  0.740165839  0.565930388
     0.133481942  0.266237911  0.070675068
     0.867933299  0.734234811  0.928721215
     0.498370064  0.998433387  0.502215402
     0.500486576  0.000034652  0.000911699
     0.054645999  0.108053533  0.251843685
     0.945363629  0.891112393  0.749972887
     0.233079295  0.466603187  0.607425564
     0.768107790  0.537763542  0.390835771
     0.229902935  0.459163979  0.892657138
     0.770326484  0.539460343  0.106801548

  ion indices of the primitive-cell ions
   primitive index   ion index
                 1           1
                 2           2
                 3           3
                 4           4
                 5           5
                 6           6
                 7           7
                 8           8
                 9           9
                10          10
                11          11
                12          12
                13          13
                14          14

 KPOINTS: K-points file

Automatic generation of k-mesh.
Space group operators:
 irot       det(A)        alpha          n_x          n_y          n_z        tau_x        tau_y        tau_z
    1     1.000000     0.000000     1.000000     0.000000     0.000000     0.000000     0.000000     0.000000

 Subroutine IBZKPT returns following result:

 Found    155 irreducible k-points:

 Following reciprocal coordinates:
            Coordinates               Weight
  0.000000  0.000000  0.000000      1.000000
  0.090909 -0.000000 -0.000000      2.000000
  0.181818 -0.000000  0.000000      2.000000
  0.272727 -0.000000  0.000000      2.000000
  0.363636 -0.000000 -0.000000      2.000000
  0.454545  0.000000  0.000000      2.000000
 -0.000000  0.142857 -0.000000      2.000000
  0.090909  0.142857  0.000000      2.000000
  0.181818  0.142857  0.000000      2.000000
  0.272727  0.142857 -0.000000      2.000000
  0.363636  0.142857  0.000000      2.000000
  0.454545  0.142857  0.000000      2.000000
 -0.454545  0.142857  0.000000      2.000000
 -0.363636  0.142857  0.000000      2.000000
 -0.272727  0.142857 -0.000000      2.000000
 -0.181818  0.142857  0.000000      2.000000
 -0.090909  0.142857 -0.000000      2.000000
 -0.000000  0.285714 -0.000000      2.000000
  0.090909  0.285714  0.000000      2.000000
  0.181818  0.285714 -0.000000      2.000000
  0.272727  0.285714 -0.000000      2.000000
  0.363636  0.285714  0.000000      2.000000
  0.454545  0.285714 -0.000000      2.000000
 -0.454545  0.285714 -0.000000      2.000000
 -0.363636  0.285714  0.000000      2.000000
 -0.272727  0.285714 -0.000000      2.000000
 -0.181818  0.285714 -0.000000      2.000000
 -0.090909  0.285714  0.000000      2.000000
 -0.000000  0.428571  0.000000      2.000000
  0.090909  0.428571  0.000000      2.000000
  0.181818  0.428571 -0.000000      2.000000
  0.272727  0.428571  0.000000      2.000000
  0.363636  0.428571  0.000000      2.000000
  0.454545  0.428571 -0.000000      2.000000
 -0.454545  0.428571  0.000000      2.000000
 -0.363636  0.428571 -0.000000      2.000000
 -0.272727  0.428571  0.000000      2.000000
 -0.181818  0.428571  0.000000      2.000000
 -0.090909  0.428571 -0.000000      2.000000
  0.000000  0.000000  0.250000      2.000000
  0.090909 -0.000000  0.250000      2.000000
  0.181818 -0.000000  0.250000      2.000000
  0.272727  0.000000  0.250000      2.000000
  0.363636  0.000000  0.250000      2.000000
  0.454545  0.000000  0.250000      2.000000
 -0.454545 -0.000000  0.250000      2.000000
 -0.363636  0.000000  0.250000      2.000000
 -0.272727  0.000000  0.250000      2.000000
 -0.181818  0.000000  0.250000      2.000000
 -0.090909  0.000000  0.250000      2.000000
  0.000000  0.142857  0.250000      2.000000
  0.090909  0.142857  0.250000      2.000000
  0.181818  0.142857  0.250000      2.000000
  0.272727  0.142857  0.250000      2.000000
  0.363636  0.142857  0.250000      2.000000
  0.454545  0.142857  0.250000      2.000000
 -0.454545  0.142857  0.250000      2.000000
 -0.363636  0.142857  0.250000      2.000000
 -0.272727  0.142857  0.250000      2.000000
 -0.181818  0.142857  0.250000      2.000000
[...]
 -0.363636  0.285714  0.500000      2.000000
 -0.272727  0.285714  0.500000      2.000000
 -0.181818  0.285714  0.500000      2.000000
 -0.090909  0.285714  0.500000      2.000000
  0.000000  0.428571  0.500000      2.000000
  0.090909  0.428571  0.500000      2.000000
  0.181818  0.428571  0.500000      2.000000
  0.272727  0.428571  0.500000      2.000000
  0.363636  0.428571  0.500000      2.000000
  0.454545  0.428571  0.500000      2.000000
 -0.454545  0.428571  0.500000      2.000000
 -0.363636  0.428571  0.500000      2.000000
 -0.272727  0.428571  0.500000      2.000000
 -0.181818  0.428571  0.500000      2.000000
 -0.090909  0.428571  0.500000      2.000000

 Following cartesian coordinates:
            Coordinates               Weight
  0.000000  0.000000  0.000000      1.000000
  0.009040 -0.000033  0.029254      2.000000
  0.018079 -0.000065  0.058509      2.000000
  0.027119 -0.000098  0.087763      2.000000
  0.036159 -0.000130  0.117017      2.000000
  0.045198 -0.000163  0.146272      2.000000
  0.028415 -0.000112 -0.000001      2.000000
  0.037455 -0.000145  0.029253      2.000000
  0.046495 -0.000177  0.058507      2.000000
  0.055535 -0.000210  0.087762      2.000000
  0.064574 -0.000242  0.117016      2.000000
  0.073614 -0.000275  0.146271      2.000000
 -0.016783  0.000051 -0.146273      2.000000
 -0.007743  0.000018 -0.117019      2.000000
  0.001296 -0.000014 -0.087764      2.000000
  0.010336 -0.000047 -0.058510      2.000000
  0.019376 -0.000079 -0.029256      2.000000
  0.056831 -0.000224 -0.000003      2.000000
  0.065871 -0.000257  0.029252      2.000000
  0.074910 -0.000289  0.058506      2.000000
  0.083950 -0.000322  0.087761      2.000000
  0.092990 -0.000354  0.117015      2.000000
  0.102029 -0.000387  0.146269      2.000000
  0.011633 -0.000061 -0.146274      2.000000
  0.020672 -0.000094 -0.117020      2.000000
  0.029712 -0.000126 -0.087766      2.000000
[...]
      1.33011      4.36229     -0.00708         0.011347     -0.002645     -0.006968
      3.74375      5.71984      1.55480         0.004311      0.011797     -0.003282
      1.34132      0.71752      0.00113        -0.010259     -0.018004      0.006044
      3.72835      9.37789      1.55551        -0.000930      0.000820     -0.002262
      5.03959      5.08230     -0.00288         0.006985      0.016853      0.000465
      0.00028      0.00900      1.55521        -0.010541      0.011520      0.004712
      0.55325      2.54141      0.00169         0.000965      0.002565     -0.005632
      4.50995      7.57838      1.55261         0.009475     -0.001264      0.005260
      2.36999      6.13344     -0.00120         0.019529     -0.012876      0.004983
      2.71921      3.95059      1.55108        -0.008176      0.007902     -0.005323
      2.34393      9.00941      0.00019         0.007638     -0.001233      0.002660
      2.71645      1.08660      1.55564        -0.025792      0.005617      0.004123
    total drift:                               -0.023512      0.091635     -0.036727

  FREE ENERGIE OF THE ION-ELECTRON SYSTEM (eV)
  free  energy   TOTEN  =      -172.25106345 eV

  energy  without entropy=     -172.25080070  energy(sigma->0) =     -172.25093207

[...]

 d Force = 0.1562847E-03[ 0.142E-03, 0.171E-03]  d Energy =-0.1545622E-02 0.170E-02
 d Force =-0.1461243E+00[-0.147E+00,-0.145E+00]  d Ewald  =-0.1405589E+02 0.139E+02

 Steepest descent step on ions:
 trial-energy change:    0.001546  1 .order    0.001110   -0.003018    0.005239
  (g-gl).g = 0.302E-02      g.g   = 0.302E-02  gl.gl    = 0.000E+00
 g(Force)  = 0.170E-03   g(Stress)= 0.285E-02 ortho     = 0.000E+00
 gamma     =   0.00000
 trial     =   1.00000
 opt step  =   0.29922  (harmonic =   0.36552) maximal distance =0.00028192
 next E    =  -172.251503   (d E  =  -0.00044)

 real space projection operators:
  max/ min on nodes  :       1839.84       1831.19

[...]

 eigenvalue-minimisations  : 37857
 total energy-change (2. order) : 0.2837353E-04  (-0.4024410E-05)
 number of electron     107.9999996 magnetization       3.0909120
 augmentation part       29.2396665 magnetization       1.7398713

[...]

 Broyden mixing:
  rms(total) = 0.17802E-03    rms(broyden)= 0.17797E-03
  rms(prec ) = 0.20125E-03
  weight for this iteration     100.00

 eigenvalues of (default mixing * dielectric matrix)
  average eigenvalue GAMMA=   1.1944
  2.5242  1.9822  1.3425  0.9332  0.7793  0.7793  0.6075  0.6075

[...]

--------------------------------------- Iteration      3(  10)  ---------------------------------------

atom =   3  type =  2  l = 2

[...]

  o =  0.0371  v =  0.0000  0.0000  0.0000  0.0000  0.0000  0.4671  0.0004 -0.8437  0.0002  0.2645      0.0000  0.0000  0.0000  0.0000  0.0000  0.0000  0.0000  0.0000  0.0000  0.0000
  o =  0.0579  v =  0.0000  0.0000  0.0000  0.0000  0.0000  0.6042  0.0097  0.0862 -0.0039 -0.7921      0.0000  0.0000  0.0000  0.0000  0.0000  0.0000  0.0000  0.0000  0.0000  0.0000
  o =  0.0594  v =  0.0000  0.0000  0.0000  0.0000  0.0000 -0.0065  0.9472 -0.0006 -0.3204  0.0082      0.0000  0.0000  0.0000  0.0000  0.0000  0.0000  0.0000  0.0000  0.0000  0.0000
  o =  0.0718  v =  0.0684 -0.9587  0.0255  0.2563 -0.0999  0.0000  0.0000  0.0000  0.0000  0.0000      0.0000  0.0000  0.0000  0.0000  0.0000  0.0000  0.0000  0.0000  0.0000  0.0000
  o =  0.0721  v = -0.5433 -0.1194 -0.2152  0.0323  0.8020  0.0000  0.0000  0.0000  0.0000  0.0000      0.0000  0.0000  0.0000  0.0000  0.0000  0.0000  0.0000  0.0000  0.0000  0.0000
  o =  0.1470  v =  0.0000  0.0000  0.0000  0.0000  0.0000 -0.0009 -0.3205 -0.0009 -0.9473 -0.0000      0.0000  0.0000  0.0000  0.0000  0.0000  0.0000  0.0000  0.0000  0.0000  0.0000
  o =  0.1505  v =  0.0010  0.2583  0.0006  0.9661  0.0004  0.0000  0.0000  0.0000  0.0000  0.0000      0.0000  0.0000  0.0000  0.0000  0.0000  0.0000  0.0000  0.0000  0.0000  0.0000
  o =  0.2043  v =  0.0000  0.0000  0.0000  0.0000  0.0000 -0.6455  0.0003 -0.5298  0.0010 -0.5500      0.0000  0.0000  0.0000  0.0000  0.0000  0.0000  0.0000  0.0000  0.0000  0.0000
  o =  0.2329  v =  0.6264 -0.0005  0.5343 -0.0010  0.5677  0.0000  0.0000  0.0000  0.0000  0.0000      0.0000  0.0000  0.0000  0.0000  0.0000  0.0000  0.0000  0.0000  0.0000  0.0000
  o =  0.8965  v = -0.5548 -0.0014  0.8171  0.0005 -0.1569  0.0000  0.0000  0.0000  0.0000  0.0000      0.0000  0.0000  0.0000  0.0000  0.0000  0.0000  0.0000  0.0000  0.0000  0.0000
atom =   6  type =  2  l = 2

 onsite density matrix

[...]

  0.1168 -0.0001  0.0589  0.0000  0.0496
 -0.0001  0.0694 -0.0000  0.0251 -0.0001
  0.0589 -0.0000  0.0836  0.0000  0.0489
  0.0000  0.0251  0.0000  0.1339 -0.0001
  0.0496 -0.0001  0.0489 -0.0001  0.1023

 occupancies and eigenvectors

  o =  0.0361  v =  0.0000  0.0000  0.0000  0.0000  0.0000 -0.4337 -0.0019  0.8490  0.0003 -0.3019      0.0000  0.0000  0.0000  0.0000  0.0000  0.0000  0.0000  0.0000  0.0000  0.0000
  o =  0.0595  v =  0.0000  0.0000  0.0000  0.0000  0.0000  0.6274  0.0044  0.0440 -0.0025 -0.7774      0.0000  0.0000  0.0000  0.0000  0.0000  0.0000  0.0000  0.0000  0.0000  0.0000
  o =  0.0608  v =  0.0000  0.0000  0.0000  0.0000  0.0000 -0.0034  0.9458  0.0019 -0.3248  0.0037      0.0000  0.0000  0.0000  0.0000  0.0000  0.0000  0.0000  0.0000  0.0000  0.0000
  o =  0.0732  v = -0.0030 -0.9629 -0.0041  0.2699  0.0053  0.0000  0.0000  0.0000  0.0000  0.0000      0.0000  0.0000  0.0000  0.0000  0.0000  0.0000  0.0000  0.0000  0.0000  0.0000
  o =  0.0781  v = -0.5983  0.0068 -0.1766 -0.0005  0.7816  0.0000  0.0000  0.0000  0.0000  0.0000      0.0000  0.0000  0.0000  0.0000  0.0000  0.0000  0.0000  0.0000  0.0000  0.0000
  o =  0.1425  v =  0.0000  0.0000  0.0000  0.0000  0.0000  0.0011  0.3248  0.0008  0.9458 -0.0003      0.0000  0.0000  0.0000  0.0000  0.0000  0.0000  0.0000  0.0000  0.0000  0.0000
  o =  0.1455  v = -0.0009 -0.2698 -0.0019 -0.9629  0.0006  0.0000  0.0000  0.0000  0.0000  0.0000      0.0000  0.0000  0.0000  0.0000  0.0000  0.0000  0.0000  0.0000  0.0000  0.0000
  o =  0.2071  v =  0.0000  0.0000  0.0000  0.0000  0.0000 -0.6467  0.0011 -0.5266  0.0006 -0.5518      0.0000  0.0000  0.0000  0.0000  0.0000  0.0000  0.0000  0.0000  0.0000  0.0000
  o =  0.2399  v =  0.6118 -0.0011  0.5293 -0.0009  0.5879  0.0000  0.0000  0.0000  0.0000  0.0000      0.0000  0.0000  0.0000  0.0000  0.0000  0.0000  0.0000  0.0000  0.0000  0.0000
  o =  0.8971  v = -0.5175 -0.0032  0.8299 -0.0004 -0.2086  0.0000  0.0000  0.0000  0.0000  0.0000      0.0000  0.0000  0.0000  0.0000  0.0000  0.0000  0.0000  0.0000  0.0000  0.0000

 eigenvalue-minimisations  : 22419
 total energy-change (2. order) :-0.5396863E-05  (-0.2299168E-06)
 number of electron     107.9999996 magnetization       3.0909102
 augmentation part       29.2390540 magnetization       1.7398750

 Free energy of the ion-electron system (eV)
  alpha Z        PSCENC =       599.17728777
  Ewald energy   TEWEN  =     -7719.21859504
  -Hartree energ DENC   =     -1961.14825475
  -exchange      EXHF   =         0.00000000
  -V(xc)+E(xc)   XCENC  =       545.10367707
  PAW double counting   =     10211.08165333   -10289.83555512
  entropy T*S    EENTRO =        -0.00026587
  eigenvalues    EBANDS =     -1198.84270368
  atomic energy  EATOM  =      9641.43159702
  Solvation  Ediel_sol  =         0.00000000
  free energy    TOTEN  =      -172.25115927 eV

  energy without entropy =     -172.25089341  energy(sigma->0) =     -172.25102634

 average (electrostatic) potential at core
  the test charge radii are     1.1137  1.0397  0.7215
  (the norm of the test charge is              1.0000)
       1 -46.8127       2 -46.8510       3 -56.7431       4 -57.2318       5 -56.5440
       6 -56.4609       7 -74.1980       8 -73.6849       9 -73.4605      10 -73.3929
      11 -73.7576      12 -73.5262      13 -73.5341      14 -73.5436

 E-fermi :   6.6799     XC(G=0): -12.0982     alpha+bet :-13.6174

[...]

 spin component 2

[...]

 k-point   155 :      -0.0909    0.4286    0.5000
  band No.  band energies     occupation
      1     -35.9102      1.00000
      2     -35.8730      1.00000
      3     -30.0993      1.00000
      4     -29.8061      1.00000
      5     -29.6726      1.00000
      6     -29.6112      1.00000
      7     -29.4978      1.00000
      8     -29.4424      1.00000
      9     -28.5726      1.00000
     10     -28.5427      1.00000
     11     -28.3816      1.00000
     12     -28.3560      1.00000
     13     -28.2632      1.00000
     14     -28.1974      1.00000
     15     -16.5536      1.00000
     16     -16.5302      1.00000
     17     -16.3812      1.00000
     18     -16.3519      1.00000
     19     -15.8607      1.00000
     20     -15.8196      1.00000
     21     -14.6257      1.00000
     22     -14.2555      1.00000
     23     -14.1284      1.00000
     24     -13.9530      1.00000
     25     -13.7466      1.00000
     26     -13.6741      1.00000
     27     -13.3486      1.00000
     28     -13.2627      1.00000
     29      -0.7886      1.00000
     30      -0.5680      1.00000
     31      -0.3141      1.00000
     32      -0.0965      1.00000
     33       0.0778      1.00000
     34       0.2194      1.00000
     35       0.2831      1.00000
     36       0.5878      1.00000
     37       0.7332      1.00000
     38       0.8849      1.00000
     39       1.0621      1.00000
     40       1.1902      1.00000
     41       1.2803      1.00000
     42       1.3624      1.00000
     43       1.6344      1.00000
     44       1.7125      1.00000
     45       1.8555      1.00000
     46       1.9499      1.00000
     47       2.0480      1.00000
     48       2.1639      1.00000
     49       2.3634      1.00000
     50       2.4165      1.00000
     51       2.7269      1.00000
     52       2.7720      1.00000
     53       5.8901      1.00000
     54       7.5998      0.00000
     55       8.2180      0.00000
     56       8.3138      0.00000
     57       8.6752      0.00000
     58       8.7018      0.00000
     59       8.9227      0.00000
     60       9.0348      0.00000
     61       9.0695      0.00000
     62       9.2689      0.00000
     63       9.3287      0.00000
     64       9.4264      0.00000
     65       9.5454      0.00000
     66       9.6124      0.00000

[...]

 soft charge-density along one line, spin component           2
         0         1         2         3         4         5         6         7         8         9
 total charge-density along one line

------------------------ aborting loop because EDIFF is reached ----------------------------------------

[...]

  FORCE on cell =-STRESS in cart. coord.  units (eV):
  Direction    XX          YY          ZZ          XY          YZ          ZX
  Alpha Z   599.17729   599.17729   599.17729
  Ewald   -2535.02074 -2728.16709 -2456.04603   -14.80023    -0.31322    -0.86224
  Hartree   681.80175   539.39991   739.94333    -3.81635    -0.11973    -0.41490
  E(xc)    -556.36096  -556.45026  -556.19706     0.03467     0.00154    -0.00264
  Local     145.11138   487.83702     5.96687    14.18884     0.37826     1.24356
  n-local  -347.81817  -339.16153  -350.99205    -1.21496    -0.02686    -0.01770
  augment   331.49851   324.58789   333.73948     2.34760     0.03235     0.04505
  Kinetic  1681.39500  1672.52169  1684.10211     3.26074     0.03971     0.00598
  Fock        0.00000     0.00000     0.00000     0.00000     0.00000     0.00000
  Total      -0.21594    -0.25509    -0.30607     0.00031    -0.00794    -0.00289
  in kB      -2.19271    -2.59020    -3.10788     0.00320    -0.08060    -0.02934

 VOLUME and BASIS-vectors are now :
  energy-cutoff  :      520.00
  volume of cell :      157.78
      direct lattice vectors                 reciprocal lattice vectors
     0.000128679 -0.000410542  3.108924587     0.099379472 -0.000355020  0.321650474
     5.030370832  0.018482441 -1.554199597     0.198792798 -0.000781478 -0.000008331
     0.039661670 10.089166396 -0.001118297    -0.000360127  0.099117634  0.000013104

  length of vectors
     3.108924617  5.265026942 10.089244415     0.336653283  0.198794335  0.099118289

 FORCES acting on ions
    electron-ion (+dipol)            ewald-force                    non-local-force                 convergence-correction
   -.129E+02 -.691E+01 0.329E+00   0.137E+02 0.679E+01 -.318E+00   -.762E+00 0.120E+00 -.219E-01   0.979E-04 0.706E-04 -.512E-04
   0.520E+01 0.118E+02 -.987E-01   -.623E+01 -.115E+02 0.953E-01   0.102E+01 -.372E+00 0.579E-02   -.210E-03 -.289E-03 0.190E-04
   0.373E+02 0.451E+02 -.507E+00   -.361E+02 -.461E+02 0.496E+00   -.124E+01 0.106E+01 -.132E-01   -.343E-03 0.344E-03 0.101E-03
   -.334E+02 -.559E+02 0.664E+00   0.325E+02 0.566E+02 -.643E+00   0.840E+00 -.628E+00 -.263E-01   0.269E-03 0.941E-04 0.216E-04
   0.539E+02 -.544E+02 -.163E+00   -.530E+02 0.547E+02 0.166E+00   -.870E+00 -.270E+00 -.443E-03   -.388E-03 0.559E-04 -.663E-04
   -.506E+02 0.516E+02 0.195E+00   0.497E+02 -.521E+02 -.198E+00   0.797E+00 0.545E+00 -.204E-04   0.425E-03 -.294E-03 0.838E-04
   -.770E+01 -.297E-01 -.428E-01   0.888E+01 -.173E+00 0.434E-01   -.118E+01 0.226E+00 -.446E-02   -.119E-03 0.208E-03 -.186E-04
   0.141E+01 -.355E+00 -.737E-01   -.156E+01 0.346E+00 0.805E-01   0.141E+00 0.256E-01 -.494E-02   0.457E-04 -.918E-04 -.144E-04
   0.172E+02 -.114E+00 -.384E+00   -.191E+02 0.627E-01 0.449E+00   0.196E+01 0.594E-01 -.742E-01   0.506E-03 -.377E-04 0.192E-04
   -.153E+02 0.902E+01 0.215E+00   0.169E+02 -.100E+02 -.244E+00   -.164E+01 0.101E+01 0.311E-01   -.472E-03 -.225E-03 -.223E-04
   0.297E+02 -.107E+03 -.480E+00   -.326E+02 0.116E+03 0.550E+00   0.288E+01 -.879E+01 -.695E-01   0.279E-03 -.233E-03 -.227E-04
   -.234E+02 0.103E+03 0.404E+00   0.256E+02 -.112E+03 -.475E+00   -.217E+01 0.855E+01 0.643E-01   -.127E-03 0.409E-03 0.116E-04
   0.274E+02 0.109E+03 -.122E+00   -.297E+02 -.117E+03 0.141E+00   0.236E+01 0.831E+01 -.190E-01   0.161E-03 0.571E-04 -.208E-04
   -.284E+02 -.106E+03 0.126E+00   0.310E+02 0.114E+03 -.144E+00   -.261E+01 -.820E+01 0.191E-01   -.164E-03 -.111E-03 0.573E-05
   0.445E+00 -.155E+01 0.677E-01   0.391E-13 0.711E-13 -.271E-13   -.475E+00 0.164E+01 -.114E+00   -.385E-04 -.425E-04 0.459E-04

 POSITION                                       TOTAL-FORCE (eV/Angst)
      3.86666      2.51084      0.00219         0.003932     -0.007026     -0.008368
      1.19129      7.59465      1.55303        -0.006737     -0.015048      0.005719
      1.33101      4.36474     -0.00721         0.014130     -0.005326     -0.009052
      3.74593      5.72326      1.55542        -0.002852      0.008308     -0.007096
      1.34195      0.71766      0.00121        -0.007369     -0.014498      0.006147
      3.73041      9.38325      1.55612        -0.003509      0.001337     -0.000213
      5.04257      5.08543     -0.00292         0.006735      0.016281     -0.000657
      0.00012      0.00916      1.55599        -0.010334      0.010128      0.005141
      0.55356      2.54290      0.00159         0.005226      0.001862     -0.005699
      4.51263      7.58266      1.55334         0.007224      0.007272      0.005857
      2.37159      6.13676     -0.00118         0.016949     -0.016920      0.004696
      2.72063      3.95295      1.55168        -0.006247      0.013167     -0.004346
      2.34531      9.01454      0.00016         0.005782      0.004246      0.003872
      2.71765      1.08727      1.55640        -0.022930     -0.003781      0.003999
    total drift:                               -0.030449      0.092503     -0.045890

  FREE ENERGIE OF THE ION-ELECTRON SYSTEM (eV)
  free  energy   TOTEN  =      -172.25115927 eV

  energy  without entropy=     -172.25089341  energy(sigma->0) =     -172.25102634

 d Force =-0.1044266E-03[-0.110E-03,-0.991E-04]  d Energy = 0.1641442E-02-0.175E-02
 d Force = 0.1022022E+00[ 0.102E+00, 0.103E+00]  d Ewald  = 0.9844722E+01-0.974E+01

 reached required accuracy - stopping structural energy minimisation

 total charge

[...]

 magnetization (x)

# of ion       s       p       d       tot
    1       -0.000  -0.000   0.007   0.006
    2       -0.000   0.000   0.003   0.003
    3        0.003   0.006   0.858   0.866
    4       -0.002   0.001   0.152   0.151
    5        0.003   0.005   0.915   0.923
    6        0.003   0.005   0.924   0.933
    7       -0.000   0.003   0.000   0.002
    8        0.001   0.026   0.000   0.027
    9       -0.001  -0.023   0.000  -0.024
   10       -0.000  -0.010   0.000  -0.011
   11       -0.001  -0.021   0.000  -0.022
   12        0.000   0.011   0.000   0.012
   13       -0.000  -0.005   0.000  -0.006
   14       -0.000  -0.006   0.000  -0.006
tot          0.005  -0.008   2.859   2.855