 vasp.6.1.2 22Jul20 (build Dec 05 2020 14:50:36) complex

 executed on         CrayXC-Intel date 2021.06.20  04:37:31

 INCAR:
 POTCAR:    PAW_PBE Ca_sv 06Sep2000
 POTCAR:    PAW_PBE V_pv 07Sep2000
 POTCAR:    PAW_PBE O 08Apr2002
 POTCAR:    PAW_PBE Ca_sv 06Sep2000
   VRHFIN =Ca: 3s3p4s

   TITEL  = PAW_PBE Ca_sv 06Sep2000
   POMASS =   40.078; ZVAL   =   10.000    mass and valenz
   ENMAX  =  266.622; ENMIN  =  199.967 eV

 POTCAR:    PAW_PBE V_pv 07Sep2000
   VRHFIN =V: p6 d4 s1

   TITEL  = PAW_PBE V_pv 07Sep2000
   POMASS =   50.941; ZVAL   =   11.000    mass and valenz
   ENMAX  =  263.673; ENMIN  =  197.755 eV

 POTCAR:    PAW_PBE O 08Apr2002
   VRHFIN =O: s2p4

   TITEL  = PAW_PBE O 08Apr2002
   POMASS =   16.000; ZVAL   =    6.000    mass and valenz
   ENMAX  =  400.000; ENMIN  =  300.000 eV

 Optimization of the real space projectors (new method)

 maximal supplied QI-value         = 16.25
 optimisation between [QCUT,QGAM] = [ 11.54, 23.24] = [ 37.28,151.24] Ry
 Optimized for a Real-space Cutoff    1.58 Angstroem

   l    n(q)    QCUT    max X(q) W(low)/X(q) W(high)/X(q)  e(spline)
   0     11    11.539    11.817    0.25E-04    0.22E-05    0.26E-07
   0     11    11.539     8.461    0.39E-04    0.49E-05    0.55E-07
   1     11    11.539     3.957    0.21E-05    0.44E-05    0.32E-07
   1     11    11.539     4.314    0.56E-04    0.44E-04    0.19E-06
   2     10    11.539    14.565    0.25E-03    0.21E-04    0.75E-06
   2     10    11.539    14.552    0.23E-03    0.22E-04    0.72E-06
 Optimization of the real space projectors (new method)

[...]

   l    n(q)    QCUT    max X(q) W(low)/X(q) W(high)/X(q)  e(spline)
   1     10    11.539     3.206    0.43E-05    0.46E-05    0.52E-07
   1     10    11.539     4.597    0.39E-04    0.25E-04    0.17E-06
   2     10    11.539    89.000    0.10E-03    0.13E-03    0.24E-06
   2     10    11.539    82.410    0.10E-03    0.13E-03    0.23E-06
   0     11    11.539    36.565    0.42E-04    0.19E-04    0.30E-06
   0     11    11.539    13.729    0.20E-04    0.13E-04    0.22E-06
 Optimization of the real space projectors (new method)

 maximal supplied QI-value         = 24.76
 optimisation between [QCUT,QGAM] = [ 11.64, 23.27] = [ 37.91,151.63] Ry
 Optimized for a Real-space Cutoff    1.14 Angstroem

   l    n(q)    QCUT    max X(q) W(low)/X(q) W(high)/X(q)  e(spline)
   0      8    11.635    20.381    0.10E-03    0.33E-03    0.24E-06
   0      8    11.635    15.268    0.11E-03    0.35E-03    0.26E-06
   1      7    11.635     5.964    0.24E-03    0.31E-03    0.30E-06
   1      7    11.635     5.382    0.22E-03    0.25E-03    0.26E-06
  PAW_PBE Ca_sv 06Sep2000               :
  PAW_PBE V_pv 07Sep2000                :
  PAW_PBE O 08Apr2002                   :

 POSCAR: Ca4 V12 O28
  positions in direct lattice
  velocities in cartesian coordinates

 METAGGA = SCAN     LMAXTAU =  6    LMIXTAU =  F

 ion  position               nearest neighbor table
   1  0.582  0.250  0.195-  23 2.30  25 2.30  43 2.43  37 2.43  35 2.47  29 2.47  18 2.48
   2  0.082  0.250  0.305-  26 2.30  24 2.30  44 2.43  38 2.43  36 2.47  30 2.47  17 2.48
   3  0.418  0.750  0.805-  21 2.30  27 2.30  39 2.43  41 2.43  31 2.47  33 2.47  20 2.48
   4  0.918  0.750  0.695-  28 2.30  22 2.30  42 2.43  40 2.43  34 2.47  32 2.47  19 2.48
   5  0.791  0.250  0.704-  17 1.64  29 1.96  35 1.96  37 1.97  43 1.97
   6  0.291  0.250  0.796-  18 1.64  30 1.96  36 1.96  38 1.97  44 1.97
   7  0.209  0.750  0.296-  19 1.64  31 1.96  33 1.96  39 1.97  41 1.97
   8  0.709  0.750  0.204-  20 1.64  32 1.96  34 1.96  40 1.97  42 1.97
   9  0.686  0.521  0.712-  21 1.64  37 1.96  40 1.96  32 1.97  29 1.97
  10  0.186  0.979  0.788-  22 1.64  38 1.96  39 1.96  31 1.97  30 1.97
  11  0.314  0.021  0.288-  23 1.64  39 1.96  38 1.96  30 1.97  31 1.97
  12  0.814  0.479  0.212-  24 1.64  40 1.96  37 1.96  29 1.97  32 1.97
  13  0.314  0.479  0.288-  25 1.64  41 1.96  44 1.96  36 1.97  33 1.97
  14  0.814  0.021  0.212-  26 1.64  42 1.96  43 1.96  35 1.97  34 1.97
  15  0.686  0.979  0.712-  27 1.64  43 1.96  42 1.96  34 1.97  35 1.97
  16  0.186  0.521  0.788-  28 1.64  44 1.96  41 1.96  33 1.97  36 1.97
  17  0.947  0.250  0.690-   5 1.64   2 2.48
  18  0.447  0.250  0.810-   6 1.64   1 2.48
  19  0.053  0.750  0.310-   7 1.64   4 2.48
  20  0.553  0.750  0.190-   8 1.64   3 2.48
  21  0.537  0.566  0.731-   9 1.64   3 2.30
  22  0.037  0.934  0.769-  10 1.64   4 2.30
  23  0.463  0.066  0.268-  11 1.64   1 2.30
  24  0.963  0.434  0.232-  12 1.64   2 2.30
  25  0.463  0.434  0.268-  13 1.64   1 2.30
  26  0.963  0.066  0.232-  14 1.64   2 2.30
  27  0.537  0.934  0.731-  15 1.64   3 2.30
  28  0.037  0.566  0.769-  16 1.64   4 2.30
  29  0.722  0.380  0.471-   5 1.96  12 1.97   9 1.97   1 2.47
  30  0.222  0.120  0.029-   6 1.96  11 1.97  10 1.97   2 2.47
  31  0.278  0.880  0.529-   7 1.96  10 1.97  11 1.97   3 2.47
  32  0.778  0.620  0.971-   8 1.96   9 1.97  12 1.97   4 2.47
  33  0.278  0.620  0.529-   7 1.96  16 1.97  13 1.97   3 2.47
  34  0.778  0.880  0.971-   8 1.96  15 1.97  14 1.97   4 2.47
  35  0.722  0.120  0.471-   5 1.96  14 1.97  15 1.97   1 2.47
  36  0.222  0.380  0.029-   6 1.96  13 1.97  16 1.97   2 2.47
  37  0.728  0.380  0.946-   9 1.96  12 1.96   5 1.97   1 2.43
  38  0.228  0.120  0.554-  10 1.96  11 1.96   6 1.97   2 2.43
  39  0.272  0.880  0.054-  11 1.96  10 1.96   7 1.97   3 2.43
  40  0.772  0.620  0.446-  12 1.96   9 1.96   8 1.97   4 2.43
  41  0.272  0.620  0.054-  13 1.96  16 1.96   7 1.97   3 2.43
  42  0.772  0.880  0.446-  14 1.96  15 1.96   8 1.97   4 2.43
  43  0.728  0.120  0.946-  15 1.96  14 1.96   5 1.97   1 2.43
  44  0.228  0.380  0.554-  16 1.96  13 1.96   6 1.97   2 2.43

IMPORTANT INFORMATION: All symmetrisations will be switched off!
NOSYMM: (Re-)initialisation of all symmetry stuff for point group C_1.

                                     Primitive cell

  volume of cell :     574.2927

  direct lattice vectors                    reciprocal lattice vectors
    10.512711189  0.000001864  0.000000649     0.095122940 -0.000000017 -0.000000006
     0.000001885 10.336917218  0.000000397    -0.000000017  0.096740641 -0.000000004
     0.000000329  0.000000192  5.284787019    -0.000000012 -0.000000007  0.189222384

  length of vectors
    10.512711189 10.336917218  5.284787019     0.095122940  0.096740641  0.189222384

  position of ions in fractional coordinates (direct lattice)
     0.581797842  0.249999981  0.195353604
     0.081797517  0.249999962  0.304646347
     0.418215162  0.749999992  0.804611349
     0.918215106  0.750000003  0.695388533
     0.791065021  0.249999981  0.703928644
     0.291065294  0.249999870  0.796071520
     0.208927819  0.750000010  0.295993938
     0.708930717  0.749999969  0.204005965
     0.685608603  0.520894974  0.712459570
     0.185605465  0.979104120  0.787540850
     0.314380103  0.020878324  0.287526626
     0.814380197  0.479121693  0.212473028
     0.314380425  0.479121510  0.287526530
     0.814380019  0.020878171  0.212473108
     0.685608432  0.979104891  0.712459532
     0.185605627  0.520896116  0.787541172
     0.947166753  0.249999976  0.689824898
     0.447166691  0.249999979  0.810174945
     0.052845564  0.749999973  0.310080705
     0.552844191  0.749999961  0.189919230
     0.536811381  0.566470782  0.731368770
     0.036813887  0.933529888  0.768631329
     0.463195066  0.066462000  0.268404000
     0.963194979  0.433537925  0.231595981
     0.463194805  0.433538007  0.268404098
     0.963195141  0.066462077  0.231595936
     0.536811523  0.933529201  0.731368790
     0.036815027  0.566471297  0.768632590
     0.721750944  0.380274914  0.471389650
     0.221751014  0.119725076  0.028610341
     0.278222667  0.880274016  0.528584911
     0.778222362  0.619725852  0.971414810
     0.278222790  0.619725935  0.528584768
     0.778222370  0.880274076  0.971414858
     0.721750960  0.119725041  0.471389608
     0.221751040  0.380274768  0.028610478
     0.727563092  0.380124458  0.946180101
     0.227563148  0.119875655  0.553819604
     0.272458826  0.880121304  0.053752504
     0.772458625  0.619878704  0.446247330
     0.272458955  0.619878634  0.053752614
     0.772458615  0.880121242  0.446247265
     0.727563092  0.119875503  0.946180150
     0.227563142  0.380124191  0.553819420

  ion indices of the primitive-cell ions
   primitive index   ion index
                 1           1
                 2           2
                 3           3
                 4           4
                 5           5
                 6           6
                 7           7
                 8           8
                 9           9
                10          10
                11          11
                12          12
                13          13
                14          14
                15          15
                16          16
                17          17
                18          18
                19          19
                20          20
                21          21
                22          22
                23          23
                24          24
                25          25
                26          26
                27          27
                28          28
                29          29
                30          30
                31          31
                32          32
                33          33
                34          34
                35          35
                36          36
                37          37
                38          38
                39          39
                40          40
                41          41
                42          42
                43          43
                44          44

 KPOINTS: K-points file

Automatic generation of k-mesh.
Space group operators:
 irot       det(A)        alpha          n_x          n_y          n_z        tau_x        tau_y        tau_z
    1     1.000000     0.000000     1.000000     0.000000     0.000000     0.000000     0.000000     0.000000

 Subroutine IBZKPT returns following result:

 Found     58 irreducible k-points:

 Following reciprocal coordinates:
            Coordinates               Weight
  0.000000  0.000000  0.000000      1.000000
  0.250000  0.000000  0.000000      2.000000
  0.500000  0.000000 -0.000000      1.000000
  0.000000  0.250000  0.000000      2.000000
  0.250000  0.250000 -0.000000      2.000000
 -0.250000  0.250000  0.000000      2.000000
  0.500000  0.250000  0.000000      2.000000
  0.000000  0.500000  0.000000      1.000000
  0.250000  0.500000 -0.000000      2.000000
  0.500000  0.500000  0.000000      1.000000
  0.000000  0.000000  0.142857      2.000000
  0.250000 -0.000000  0.142857      2.000000
 -0.250000 -0.000000  0.142857      2.000000
  0.500000  0.000000  0.142857      2.000000
  0.000000  0.250000  0.142857      2.000000
 -0.000000 -0.250000  0.142857      2.000000
  0.250000  0.250000  0.142857      2.000000
 -0.250000 -0.250000  0.142857      2.000000
 -0.250000  0.250000 -0.142857      2.000000
  0.250000 -0.250000 -0.142857      2.000000
  0.500000  0.250000  0.142857      2.000000
[...]
     59     -17.3472      1.00000
     60     -17.3471      1.00000
[...]
    202       6.1251      0.00000
    203       6.1252      0.00000
    204       6.1253      0.00000
    205       6.2172      0.00000
    206       6.2173      0.00000
    207       6.2174      0.00000
    208       6.2174      0.00000
    209       6.2795      0.00000
    210       6.2796      0.00000
    211       6.2799      0.00000
    212       6.2800      0.00000
    213       6.7348      0.00000
    214       6.7348      0.00000
    215       6.7355      0.00000
    216       6.7401      0.00000

 soft charge-density along one line, spin component           1
         0         1         2         3         4         5         6         7         8         9
 total charge-density along one line

 soft charge-density along one line, spin component           2
         0         1         2         3         4         5         6         7         8         9
 total charge-density along one line

------------------------ aborting loop because EDIFF is reached ----------------------------------------

 total charge

# of ion       s       p       d       tot
    1        2.020   5.869   0.214   8.103
    2        2.020   5.869   0.214   8.103
    3        2.020   5.869   0.214   8.103
    4        2.020   5.869   0.214   8.103
    5        0.339   6.343   3.037   9.719
    6        0.339   6.343   3.037   9.719
    7        0.339   6.343   3.037   9.720
    8        0.339   6.343   3.037   9.720
    9        0.343   6.350   3.061   9.754
   10        0.343   6.350   3.062   9.754
   11        0.343   6.350   3.061   9.753
   12        0.343   6.350   3.061   9.753
   13        0.343   6.350   3.061   9.753
   14        0.343   6.350   3.061   9.753
   15        0.343   6.350   3.061   9.754
   16        0.343   6.350   3.062   9.754
   17        1.602   3.420   0.000   5.022
   18        1.602   3.420   0.000   5.022
   19        1.602   3.420   0.000   5.022
   20        1.602   3.420   0.000   5.022
   21        1.603   3.442   0.000   5.046
   22        1.603   3.442   0.000   5.046
   23        1.603   3.442   0.000   5.046
   24        1.603   3.442   0.000   5.046
   25        1.603   3.442   0.000   5.046
   26        1.603   3.442   0.000   5.046
   27        1.603   3.442   0.000   5.046
   28        1.603   3.442   0.000   5.046
   29        1.571   3.537   0.000   5.108
   30        1.571   3.537   0.000   5.108
   31        1.571   3.537   0.000   5.108
   32        1.571   3.537   0.000   5.108
   33        1.571   3.537   0.000   5.108
   34        1.571   3.537   0.000   5.108
   35        1.571   3.537   0.000   5.108
   36        1.571   3.537   0.000   5.108
   37        1.571   3.542   0.000   5.113
   38        1.571   3.542   0.000   5.113
   39        1.571   3.542   0.000   5.113
   40        1.571   3.542   0.000   5.113
   41        1.571   3.542   0.000   5.113
   42        1.571   3.542   0.000   5.113
   43        1.571   3.542   0.000   5.113
   44        1.571   3.542   0.000   5.113
tot         56.554 197.493  37.493 291.540

 magnetization (x)

[...]

  FORCE on cell =-STRESS in cart. coord.  units (eV):
  Direction    XX          YY          ZZ          XY          YZ          ZX
  Alpha Z  1574.01930  1574.01930  1574.01930
  Ewald   -9059.73900 -5594.51606 -6016.84411    -0.00414    -0.00105     0.00993
  Hartree  1389.47833  4538.83359  4377.21145    -0.00166    -0.00060     0.00454
  E(xc)   -1861.52293 -1860.95494 -1861.22646     0.00000    -0.00000    -0.00000
  Local    2950.42215 -3827.20052 -3256.18747     0.00538     0.00163    -0.01392
  n-local -1602.86723 -1620.47566 -1621.16366    -0.00001    -0.00001    -0.00024
  augment   745.28285   803.65361   806.80965     0.00005    -0.00001    -0.00009
  Kinetic  5865.04958  5986.66018  5997.21660     0.00005    -0.00001    -0.00006
  Fock        0.00000     0.00000     0.00000     0.00000     0.00000     0.00000
  Total       0.12305     0.01950    -0.16469    -0.00033    -0.00004     0.00016
  in kB       0.34329     0.05439    -0.45947    -0.00091    -0.00012     0.00045

 VOLUME and BASIS-vectors are now :
  energy-cutoff  :      520.00
  volume of cell :      574.29
      direct lattice vectors                 reciprocal lattice vectors
    10.512711189  0.000001864  0.000000649     0.095122940 -0.000000017 -0.000000006
     0.000001885 10.336917218  0.000000397    -0.000000017  0.096740641 -0.000000004
     0.000000329  0.000000192  5.284787019    -0.000000012 -0.000000007  0.189222384

  length of vectors
    10.512711189 10.336917218  5.284787019     0.095122940  0.096740641  0.189222384

 FORCES acting on ions
    electron-ion (+dipol)            ewald-force                    non-local-force                 convergence-correction
   0.144E+03 -.438E-03 -.288E+02   -.143E+03 0.398E-03 0.280E+02   -.313E+00 0.295E-04 0.818E+00   0.516E-04 0.327E-05 0.108E-04
   0.144E+03 -.842E-03 0.288E+02   -.143E+03 0.841E-03 -.280E+02   -.314E+00 0.575E-05 -.818E+00   0.512E-04 -.298E-05 -.120E-04
   -.144E+03 -.289E-03 0.287E+02   0.143E+03 0.261E-03 -.279E+02   0.316E+00 0.225E-04 -.814E+00   -.470E-04 0.135E-05 -.128E-04
   -.144E+03 0.586E-03 -.287E+02   0.143E+03 -.541E-03 0.279E+02   0.317E+00 -.185E-04 0.814E+00   -.467E-04 -.156E-05 0.140E-04
   -.600E+02 -.489E-04 -.236E+02   0.573E+02 0.172E-04 0.236E+02   0.304E+01 0.101E-04 -.162E-01   0.698E-04 -.358E-06 -.887E-05
   -.600E+02 -.599E-03 0.236E+02   0.573E+02 0.668E-03 -.236E+02   0.304E+01 -.193E-04 0.162E-01   0.593E-04 -.443E-05 0.978E-05
   0.599E+02 -.124E-04 0.236E+02   -.572E+02 -.309E-04 -.235E+02   -.305E+01 0.174E-04 0.127E-01   -.563E-04 0.558E-05 0.509E-05
   0.599E+02 0.316E-03 -.236E+02   -.572E+02 -.310E-03 0.235E+02   -.305E+01 0.689E-06 -.127E-01   -.515E-04 -.174E-05 -.638E-05
   0.111E+03 -.284E+02 0.148E+02   -.109E+03 0.276E+02 -.149E+02   -.261E+01 0.839E+00 0.146E+00   -.199E-04 -.536E-04 0.473E-05
   0.111E+03 0.284E+02 -.148E+02   -.109E+03 -.276E+02 0.149E+02   -.261E+01 -.840E+00 -.146E+00   -.284E-04 0.579E-04 -.579E-05
   -.111E+03 -.286E+02 -.151E+02   0.109E+03 0.278E+02 0.152E+02   0.261E+01 0.856E+00 -.139E+00   0.173E-05 -.577E-04 0.102E-04
   -.111E+03 0.286E+02 0.151E+02   0.109E+03 -.278E+02 -.152E+02   0.261E+01 -.856E+00 0.139E+00   0.221E-04 0.563E-04 -.106E-04
   -.111E+03 0.286E+02 -.151E+02   0.109E+03 -.278E+02 0.152E+02   0.261E+01 -.856E+00 -.139E+00   0.117E-04 0.539E-04 0.916E-05
   -.111E+03 -.286E+02 0.151E+02   0.109E+03 0.278E+02 -.152E+02   0.261E+01 0.856E+00 0.139E+00   0.260E-04 -.560E-04 -.914E-05
   0.111E+03 0.284E+02 0.148E+02   -.109E+03 -.276E+02 -.149E+02   -.261E+01 -.839E+00 0.146E+00   -.198E-04 0.524E-04 0.380E-05
   0.111E+03 -.284E+02 -.148E+02   -.109E+03 0.276E+02 0.149E+02   -.261E+01 0.840E+00 -.146E+00   -.338E-04 -.538E-04 -.375E-05
   -.271E+03 -.640E-03 -.455E+02   0.294E+03 0.614E-03 0.474E+02   -.229E+02 0.330E-04 -.196E+01   -.107E-03 -.365E-06 0.547E-04
   -.271E+03 -.217E-03 0.455E+02   0.294E+03 0.237E-03 -.474E+02   -.229E+02 -.217E-04 0.196E+01   -.112E-03 -.484E-06 -.556E-04
   0.271E+03 0.216E-03 0.453E+02   -.294E+03 -.220E-03 -.473E+02   0.229E+02 0.206E-05 0.197E+01   0.114E-03 0.112E-05 -.544E-04
   0.271E+03 0.888E-04 -.453E+02   -.294E+03 -.969E-04 0.473E+02   0.229E+02 0.968E-05 -.197E+01   0.118E-03 -.421E-07 0.553E-04
   0.235E+03 -.261E+02 -.331E+01   -.257E+03 0.280E+02 0.374E+01   0.222E+02 -.191E+01 -.430E+00   0.806E-04 -.127E-03 -.261E-04
   0.235E+03 0.261E+02 0.331E+01   -.257E+03 -.280E+02 -.374E+01   0.222E+02 0.191E+01 0.430E+00   0.697E-04 0.126E-03 0.251E-04
   -.235E+03 -.261E+02 0.340E+01   0.257E+03 0.280E+02 -.385E+01   -.222E+02 -.191E+01 0.453E+00   -.106E-03 -.136E-03 0.286E-04
   -.235E+03 0.261E+02 -.340E+01   0.257E+03 -.280E+02 0.385E+01   -.222E+02 0.191E+01 -.454E+00   -.854E-04 0.131E-03 -.270E-04
   -.235E+03 0.261E+02 0.340E+01   0.257E+03 -.280E+02 -.385E+01   -.222E+02 0.191E+01 0.453E+00   -.914E-04 0.133E-03 0.274E-04
   -.235E+03 -.261E+02 -.340E+01   0.257E+03 0.280E+02 0.385E+01   -.222E+02 -.191E+01 -.453E+00   -.795E-04 -.130E-03 -.263E-04
   0.235E+03 0.261E+02 -.331E+01   -.257E+03 -.280E+02 0.374E+01   0.222E+02 0.191E+01 -.430E+00   0.787E-04 0.127E-03 -.261E-04
   0.235E+03 -.261E+02 0.331E+01   -.257E+03 0.280E+02 -.374E+01   0.222E+02 -.191E+01 0.430E+00   0.626E-04 -.124E-03 0.249E-04
   0.103E+03 0.739E+02 0.644E+02   -.110E+03 -.789E+02 -.696E+02   0.749E+01 0.510E+01 0.515E+01   0.486E-04 0.704E-04 0.638E-04
   0.103E+03 -.739E+02 -.644E+02   -.110E+03 0.789E+02 0.696E+02   0.749E+01 -.510E+01 -.515E+01   0.505E-04 -.697E-04 -.534E-04
   -.103E+03 0.739E+02 -.644E+02   0.110E+03 -.789E+02 0.696E+02   -.749E+01 0.510E+01 -.515E+01   -.433E-04 0.732E-04 -.798E-04
   -.103E+03 -.739E+02 0.644E+02   0.110E+03 0.789E+02 -.696E+02   -.749E+01 -.510E+01 0.515E+01   -.449E-04 -.662E-04 0.703E-04
   -.103E+03 -.739E+02 -.644E+02   0.110E+03 0.789E+02 0.696E+02   -.749E+01 -.510E+01 -.515E+01   -.431E-04 -.656E-04 -.773E-04
   -.103E+03 0.739E+02 0.644E+02   0.110E+03 -.789E+02 -.696E+02   -.749E+01 0.510E+01 0.515E+01   -.452E-04 0.644E-04 0.691E-04
   0.103E+03 -.739E+02 0.644E+02   -.110E+03 0.789E+02 -.696E+02   0.749E+01 -.510E+01 0.515E+01   0.489E-04 -.689E-04 0.654E-04
   0.103E+03 0.739E+02 -.644E+02   -.110E+03 -.789E+02 0.696E+02   0.749E+01 0.510E+01 -.515E+01   0.483E-04 0.638E-04 -.560E-04
   0.688E+02 0.764E+02 -.647E+02   -.743E+02 -.820E+02 0.697E+02   0.546E+01 0.562E+01 -.496E+01   0.580E-04 0.701E-04 -.646E-04
   0.688E+02 -.764E+02 0.647E+02   -.743E+02 0.820E+02 -.697E+02   0.546E+01 -.562E+01 0.496E+01   0.599E-04 -.699E-04 0.546E-04
   -.690E+02 0.764E+02 0.647E+02   0.744E+02 -.820E+02 -.696E+02   -.547E+01 0.562E+01 0.495E+01   -.527E-04 0.714E-04 0.813E-04
   -.690E+02 -.764E+02 -.647E+02   0.744E+02 0.820E+02 0.696E+02   -.547E+01 -.562E+01 -.495E+01   -.544E-04 -.639E-04 -.724E-04
   -.690E+02 -.764E+02 0.647E+02   0.744E+02 0.820E+02 -.696E+02   -.547E+01 -.562E+01 0.495E+01   -.529E-04 -.640E-04 0.791E-04
   -.690E+02 0.764E+02 -.647E+02   0.744E+02 -.820E+02 0.696E+02   -.547E+01 0.562E+01 -.495E+01   -.546E-04 0.621E-04 -.709E-04
   0.688E+02 -.764E+02 -.647E+02   -.743E+02 0.820E+02 0.697E+02   0.546E+01 -.562E+01 -.496E+01   0.577E-04 -.682E-04 -.665E-04
   0.688E+02 0.764E+02 0.647E+02   -.743E+02 -.820E+02 -.697E+02   0.546E+01 0.562E+01 0.496E+01   0.576E-04 0.629E-04 0.569E-04
   -.345E-01 0.310E-03 0.270E-03   0.853E-13 -.568E-13 0.711E-13   0.389E-01 -.256E-03 -.697E-03   -.292E-04 0.547E-06 -.179E-05

 POSITION                                       TOTAL-FORCE (eV/Angst)
      6.11627      2.58423      1.03240        -0.005650     -0.000008     -0.025497
      0.85991      2.58423      1.60999        -0.005348      0.000000      0.025522
      4.39658      7.75269      4.25220         0.005033     -0.000006      0.025892
      9.65293      7.75269      3.67498         0.005065      0.000023     -0.025897
      8.31624      2.58423      3.72011         0.003563     -0.000023     -0.000078
      3.05989      2.58423      4.20707         0.003308      0.000043      0.000020
      2.19640      7.75269      1.56427         0.001016     -0.000022      0.001615
      7.45279      7.75269      1.07813        -0.002026      0.000003     -0.001735
      7.20761      5.38445      3.76520         0.005944     -0.016601     -0.005945
      1.95122     10.12092      4.16199         0.009546      0.017730      0.005978
      3.30499      0.21582      1.51952         0.005711     -0.007589      0.007771
      8.56134      4.95264      1.12288         0.005603      0.007517     -0.007671
      3.30499      4.95264      1.51952         0.005366      0.007689      0.007810
      8.56134      0.21582      1.12288         0.005823     -0.007435     -0.007675
      7.20761     10.12093      3.76520         0.006117      0.016681     -0.005947
      1.95122      5.38446      4.16199         0.009875     -0.017877      0.005957
      9.95729      2.58423      3.64558        -0.016907      0.000006     -0.023502
      4.70094      2.58423      4.28160        -0.016653     -0.000003      0.023556
      0.55555      7.75269      1.63871         0.014082     -0.000002      0.024458
      5.81189      7.75269      1.00368         0.016273      0.000000     -0.024312
      5.64334      5.85556      3.86513        -0.009848      0.012638      0.000005
      0.38702      9.64982      4.06205        -0.012301     -0.013550     -0.000306
      4.86944      0.68701      1.41846        -0.000556      0.009492      0.001266
     10.12579      4.48145      1.22394        -0.000583     -0.009420     -0.001265
      4.86943      4.48145      1.41846        -0.000278     -0.009576      0.001247
     10.12579      0.68701      1.22394        -0.000752      0.009372     -0.001272
      5.64335      9.64982      3.86513        -0.009977     -0.012681      0.000014
      0.38703      5.85557      4.06206        -0.012646      0.013597     -0.000335
      7.58756      3.93087      2.49119        -0.009448      0.015919     -0.012676
      2.33120      1.23759      0.15120        -0.009613     -0.015963      0.012674
      2.92488      9.09932      2.79346         0.008149      0.014505      0.012021
      8.18123      6.40606      5.13372         0.008506     -0.014516     -0.011987
      2.92488      6.40606      2.79346         0.008151     -0.014496      0.012027
      8.18123      9.09932      5.13372         0.008488      0.014505     -0.011987
      7.58756      1.23759      2.49119        -0.009460     -0.015916     -0.012661
      2.33121      3.93087      0.15120        -0.009608      0.015963      0.012662
      7.64866      3.92932      5.00036        -0.000488      0.013650      0.015479
      2.39231      1.23915      2.92682        -0.000655     -0.013746     -0.015388
      2.86428      9.09774      0.28407        -0.000570      0.010279     -0.015537
      8.12064      6.40764      2.35832        -0.000260     -0.010327      0.015562
      2.86428      6.40763      0.28407        -0.000557     -0.010261     -0.015532
      8.12064      9.09774      2.35832        -0.000278      0.010311      0.015564
      7.64866      1.23914      5.00036        -0.000501     -0.013656      0.015465
      2.39231      3.92931      2.92682        -0.000654      0.013754     -0.015360
    total drift:                                0.004344      0.000055     -0.000429

  FREE ENERGIE OF THE ION-ELECTRON SYSTEM (eV)
  free  energy   TOTEN  =      -535.97242559 eV

  energy  without entropy=     -535.97242559  energy(sigma->0) =     -535.97242559

 reached required accuracy - stopping structural energy minimisation

 total charge

[...]

 magnetization (x)

# of ion       s       p       d       tot
    1        0.001  -0.001   0.000   0.000
    2        0.001  -0.001   0.000   0.000
    3        0.001  -0.001   0.000   0.000
    4        0.001  -0.001   0.000   0.000
    5        0.007   0.005   1.024   1.036
    6        0.007   0.005   1.024   1.036
    7        0.007   0.006   1.024   1.037
    8        0.007   0.006   1.024   1.037
    9        0.012   0.006   1.039   1.056
   10        0.012   0.006   1.039   1.056
   11        0.011   0.006   1.039   1.056
   12        0.011   0.006   1.039   1.056
   13        0.011   0.006   1.039   1.056
   14        0.011   0.006   1.039   1.056
   15        0.012   0.006   1.039   1.056
   16        0.012   0.006   1.039   1.056
   17       -0.002  -0.104   0.000  -0.106
   18       -0.002  -0.104   0.000  -0.106
   19       -0.002  -0.104   0.000  -0.106
   20       -0.002  -0.104   0.000  -0.106
   21       -0.002  -0.099   0.000  -0.101
   22       -0.002  -0.099   0.000  -0.101
   23       -0.002  -0.099   0.000  -0.101
   24       -0.002  -0.099   0.000  -0.101
   25       -0.002  -0.099   0.000  -0.101
   26       -0.002  -0.099   0.000  -0.101
   27       -0.002  -0.099   0.000  -0.101
   28       -0.002  -0.099   0.000  -0.101
   29       -0.000   0.006   0.000   0.006
   30       -0.000   0.006   0.000   0.006
   31       -0.000   0.006   0.000   0.005
   32       -0.000   0.006   0.000   0.005
   33       -0.000   0.006   0.000   0.005
   34       -0.000   0.006   0.000   0.005
   35       -0.000   0.006   0.000   0.006
   36       -0.000   0.006   0.000   0.006
   37       -0.000   0.005   0.000   0.005
   38       -0.000   0.005   0.000   0.005
   39       -0.000   0.005   0.000   0.004
   40       -0.000   0.005   0.000   0.004
   41       -0.000   0.005   0.000   0.004
   42       -0.000   0.005   0.000   0.004
   43       -0.000   0.005   0.000   0.005
   44       -0.000   0.005   0.000   0.005
tot          0.098  -1.061  12.405  11.442