 vasp.6.3.0 20Jan22 (build Apr 15 2022 04:40:24) complex
 executed on              LinuxNV date 2022.06.08  18:11:38

 INCAR:
   ALGO = ALL
   EDIFF = 1E-5
   EDIFFG = -0.03
   ENCUT = 520
   IBRION = 2
   ICHARG = 2
   ISIF = 3
   ISYM = 0
   ISPIN = 2
   LREAL = Auto
   NELMIN = 6
   NELM = 150
   NSW = 199
   PREC = Accurate
   ISMEAR = 0
   SIGMA = 0.05
   MAGMOM = 2*0.6 4*4.0 6*0.6 24*0.6
   LWAVE = False
   LORBIT = 11
   LPLANE = True
   NCORE = 16
   NSIM = 4

 POTCAR:    PAW_PBE Ca_sv 06Sep2000
 POTCAR:    PAW_PBE Mn_pv 02Aug2007
 POTCAR:    PAW_PBE S 06Sep2000
 POTCAR:    PAW_PBE O 08Apr2002
 POTCAR:    PAW_PBE Ca_sv 06Sep2000
   VRHFIN =Ca: 3s3p4s

   TITEL  = PAW_PBE Ca_sv 06Sep2000
   POMASS =   40.078; ZVAL   =   10.000    mass and valenz
   ENMAX  =  266.622; ENMIN  =  199.967 eV

 POTCAR:    PAW_PBE Mn_pv 02Aug2007
   VRHFIN =Mn: 3p4s3d

   TITEL  = PAW_PBE Mn_pv 02Aug2007
   POMASS =   54.938; ZVAL   =   13.000    mass and valenz
   ENMAX  =  269.864; ENMIN  =  202.398 eV

 POTCAR:    PAW_PBE S 06Sep2000
   VRHFIN =S : s2p4

   TITEL  = PAW_PBE S 06Sep2000
   POMASS =   32.066; ZVAL   =    6.000    mass and valenz
   ENMAX  =  258.689; ENMIN  =  194.016 eV

 POTCAR:    PAW_PBE O 08Apr2002
   VRHFIN =O: s2p4

   TITEL  = PAW_PBE O 08Apr2002
   POMASS =   16.000; ZVAL   =    6.000    mass and valenz
   ENMAX  =  400.000; ENMIN  =  300.000 eV

 Optimization of the real space projectors (new method)

 maximal supplied QI-value         = 16.25
 optimisation between [QCUT,QGAM] = [ 11.54, 23.24] = [ 37.28,151.24] Ry
 Optimized for a Real-space Cutoff    1.58 Angstroem

   l    n(q)    QCUT    max X(q) W(low)/X(q) W(high)/X(q)  e(spline)
   0     11    11.539    11.817    0.25E-04    0.22E-05    0.26E-07
   0     11    11.539     8.461    0.39E-04    0.49E-05    0.55E-07
   1     11    11.539     3.957    0.21E-05    0.44E-05    0.32E-07
   1     11    11.539     4.314    0.56E-04    0.44E-04    0.19E-06
   2     10    11.539    14.565    0.25E-03    0.21E-04    0.75E-06
   2     10    11.539    14.552    0.23E-03    0.22E-04    0.72E-06
 Optimization of the real space projectors (new method)

[...]

   l    n(q)    QCUT    max X(q) W(low)/X(q) W(high)/X(q)  e(spline)
   0      8    11.508   187.594    0.96E-04    0.18E-03    0.54E-07
   0      8    11.508   164.243    0.96E-04    0.18E-03    0.54E-07
   1      8    11.508    67.533    0.18E-03    0.65E-04    0.94E-07
   1      8    11.508    50.729    0.18E-03    0.63E-04    0.92E-07
 Optimization of the real space projectors (new method)

 maximal supplied QI-value         = 24.76
 optimisation between [QCUT,QGAM] = [ 11.64, 23.27] = [ 37.91,151.63] Ry
 Optimized for a Real-space Cutoff    1.14 Angstroem

   l    n(q)    QCUT    max X(q) W(low)/X(q) W(high)/X(q)  e(spline)
   0      8    11.635    20.381    0.10E-03    0.33E-03    0.24E-06
   0      8    11.635    15.268    0.11E-03    0.35E-03    0.26E-06
   1      7    11.635     5.964    0.24E-03    0.31E-03    0.30E-06
   1      7    11.635     5.382    0.22E-03    0.25E-03    0.26E-06
  PAW_PBE Ca_sv 06Sep2000               :
  PAW_PBE Mn_pv 02Aug2007               :
  PAW_PBE S 06Sep2000                   :
  PAW_PBE O 08Apr2002                   :

 POSCAR: Ca2 Mn4 S6 O24
  positions in direct lattice
  velocities in cartesian coordinates
 exchange correlation table for  LEXCH =        8
   RHO(1)=    0.500       N(1)  =     2000
   RHO(2)=  100.500       N(2)  =     4000

 ion  position               nearest neighbor table
   1  0.497  0.497  0.497-  24 2.41  20 2.41  22 2.41  13 2.41  17 2.41  15 2.41
   2  0.997  0.997  0.997-  23 2.41  19 2.41  21 2.41  16 2.41  18 2.41  14 2.41
   3  0.649  0.649  0.649-  26 2.10  30 2.10  28 2.10  15 2.26  13 2.26  17 2.26
   4  0.149  0.149  0.149-  27 2.10  25 2.10  29 2.10  14 2.26  16 2.26  18 2.26
   5  0.846  0.846  0.846-  32 2.10  36 2.10  34 2.10  21 2.26  23 2.26  19 2.26
   6  0.346  0.346  0.346-  33 2.10  35 2.10  31 2.10  24 2.26  22 2.26  20 2.26
   7  0.946  0.247  0.550-  25 1.47  31 1.47  23 1.50  15 1.50
   8  0.446  0.050  0.747-  26 1.47  32 1.47  22 1.50  18 1.50
   9  0.550  0.946  0.247-  27 1.47  33 1.47  19 1.50  17 1.50
  10  0.747  0.446  0.050-  28 1.47  34 1.47  24 1.50  14 1.50
  11  0.247  0.550  0.946-  29 1.47  35 1.47  21 1.50  13 1.50
  12  0.050  0.747  0.446-  30 1.47  36 1.47  20 1.50  16 1.50
  13  0.403  0.567  0.764-  11 1.50   3 2.26   1 2.41
  14  0.903  0.264  0.067-  10 1.50   4 2.26   2 2.41
  15  0.764  0.403  0.567-   7 1.50   3 2.26   1 2.41
  16  0.067  0.903  0.264-  12 1.50   4 2.26   2 2.41
  17  0.567  0.764  0.403-   9 1.50   3 2.26   1 2.41
  18  0.264  0.067  0.903-   8 1.50   4 2.26   2 2.41
  19  0.731  0.928  0.092-   9 1.50   5 2.26   2 2.41
  20  0.231  0.592  0.428-  12 1.50   6 2.26   1 2.41
  21  0.092  0.731  0.928-  11 1.50   5 2.26   2 2.41
  22  0.428  0.231  0.592-   8 1.50   6 2.26   1 2.41
  23  0.928  0.092  0.731-   7 1.50   5 2.26   2 2.41
  24  0.592  0.428  0.231-  10 1.50   6 2.26   1 2.41
  25  0.984  0.190  0.404-   7 1.47   4 2.10
  26  0.484  0.904  0.690-   8 1.47   3 2.10
  27  0.404  0.984  0.190-   9 1.47   4 2.10
  28  0.690  0.484  0.904-  10 1.47   3 2.10
  29  0.190  0.404  0.984-  11 1.47   4 2.10
  30  0.904  0.690  0.484-  12 1.47   3 2.10
  31  0.091  0.305  0.512-   7 1.47   6 2.10
  32  0.591  0.012  0.805-   8 1.47   5 2.10
  33  0.512  0.091  0.305-   9 1.47   6 2.10
  34  0.805  0.591  0.012-  10 1.47   5 2.10
  35  0.305  0.512  0.091-  11 1.47   6 2.10
  36  0.012  0.805  0.591-  12 1.47   5 2.10

IMPORTANT INFORMATION: All symmetrisations will be switched off!
NOSYMM: (Re-)initialisation of all symmetry stuff for point group C_1.

                                     Primitive cell

  volume of cell :     508.6783

  direct lattice vectors                    reciprocal lattice vectors
     7.807381999  0.099380933  4.559914656     0.129545519 -0.046101379 -0.001497781
     2.664559797  7.339303837  4.559911790    -0.000875442  0.137501154 -0.001497853
     0.139886418  0.099371003  9.040383716    -0.064900406 -0.046101448  0.112125753

  length of vectors
     9.042008180  9.042016106  9.042011974     0.137512261  0.137512099  0.137512147

  position of ions in fractional coordinates (direct lattice)
     0.497496875  0.497496286  0.497496743
     0.997496049  0.997497126  0.997496199
     0.649189693  0.649190033  0.649188385
     0.149188703  0.149190389  0.149188503
     0.845799244  0.845798486  0.845799112
     0.345799556  0.345798703  0.345799045
     0.945592854  0.247497550  0.549640160
     0.445591971  0.049638988  0.747499499
     0.549638096  0.945591544  0.247498537
     0.747497665  0.445592254  0.049643091
     0.247498375  0.549639553  0.945589997
     0.049641127  0.747499837  0.445588805
     0.402546543  0.567024686  0.764278876
     0.902546831  0.264280824  0.067022412
     0.764280659  0.402546537  0.567023707
     0.067023354  0.902548411  0.264277861
     0.567024902  0.764279112  0.402544798
     0.264278996  0.067024991  0.902545265
     0.730843101  0.927957069  0.092327375
     0.230848413  0.592331352  0.427948182
     0.092328755  0.730845121  0.927953534
     0.427955692  0.230843920  0.592327946
     0.927952871  0.092328456  0.730845800
     0.592330880  0.427947605  0.230849241
     0.984175548  0.190471279  0.403696303
     0.484172398  0.903695300  0.690471743
     0.403694953  0.984172839  0.190471613
     0.690468678  0.484177305  0.903698096
     0.190471757  0.403697134  0.984169319
     0.903697940  0.690470012  0.484169231
     0.091152900  0.304599146  0.511919410
     0.591150811  0.011913690  0.804602223
     0.511911958  0.091150941  0.304603539
     0.804596743  0.591151606  0.011922589
     0.304602160  0.511911650  0.091151654
     0.011912947  0.804600266  0.591151205

  ion indices of the primitive-cell ions
   primitive index   ion index
                 1           1
                 2           2
                 3           3
                 4           4
                 5           5
                 6           6
                 7           7
                 8           8
                 9           9
                10          10
                11          11
                12          12
                13          13
                14          14
                15          15
                16          16
                17          17
                18          18
                19          19
                20          20
                21          21
                22          22
                23          23
                24          24
                25          25
                26          26
                27          27
                28          28
                29          29
                30          30
                31          31
                32          32
                33          33
                34          34
                35          35
                36          36

 KPOINTS: Fully automatic kpoint scheme

Automatic generation of k-mesh.
 Grid dimensions derived from RKLEN:
 generate k-points for:    4    4    4

 Generating k-lattice:

  Cartesian coordinates                     Fractional coordinates (reciprocal lattice)
     0.032386380 -0.011525345 -0.000374445     0.250000000 -0.000000000 -0.000000000
    -0.000218861  0.034375288 -0.000374463    -0.000000000  0.250000000  0.000000000
    -0.016225101 -0.011525362  0.028031438    -0.000000000 -0.000000000  0.250000000

  Length of vectors
     0.034378065  0.034378025  0.034378037

  Shift w.r.t. Gamma in fractional coordinates (k-lattice)
     0.000000000  0.000000000  0.000000000

 Subroutine IBZKPT returns following result:

 Found     36 irreducible k-points:

 Following reciprocal coordinates:
            Coordinates               Weight
  0.000000  0.000000  0.000000      1.000000
  0.250000  0.000000  0.000000      2.000000
  0.000000  0.250000  0.000000      2.000000
  0.000000  0.000000  0.250000      2.000000
  0.500000  0.000000  0.000000      1.000000
  0.000000  0.500000  0.000000      1.000000
  0.000000  0.000000  0.500000      1.000000
  0.250000  0.250000  0.000000      2.000000
 -0.250000  0.000000 -0.250000      2.000000
  0.000000  0.250000  0.250000      2.000000
  0.500000  0.250000  0.000000      2.000000
  0.500000  0.000000 -0.250000      2.000000
  0.000000  0.500000  0.250000      2.000000
 -0.250000  0.500000  0.000000      2.000000
  0.250000  0.000000  0.500000      2.000000
  0.000000 -0.250000  0.500000      2.000000
 -0.250000  0.250000  0.000000      2.000000
  0.250000  0.000000 -0.250000      2.000000
  0.000000 -0.250000  0.250000      2.000000
  0.500000  0.500000  0.000000      1.000000
  0.500000  0.000000  0.500000      1.000000
  0.000000  0.500000  0.500000      1.000000
  0.250000  0.250000  0.250000      2.000000
  0.500000  0.250000  0.250000      2.000000
  0.250000  0.500000  0.250000      2.000000
  0.250000  0.250000  0.500000      2.000000
 -0.250000  0.250000  0.250000      2.000000
  0.250000 -0.250000  0.250000      2.000000
  0.250000  0.250000 -0.250000      2.000000
[...]
     32     -18.1017      1.00000
     33     -18.0582      1.00000
     34     -18.0580      1.00000
     35     -17.9387      1.00000
     36     -17.9387      1.00000
     37     -17.9387      1.00000
     38     -17.9387      1.00000
     39     -17.7691      1.00000
     40     -17.7691      1.00000
     41     -17.7691      1.00000
     42     -17.7691      1.00000
     43     -17.7313      1.00000
     44     -17.7313      1.00000
     45      -8.6345      1.00000
     46      -8.6345      1.00000
     47      -8.0042      1.00000
     48      -8.0042      1.00000
     49      -8.0041      1.00000
     50      -8.0041      1.00000
     51      -6.3661      1.00000
     52      -6.3660      1.00000
     53      -6.0328      1.00000
     54      -6.0328      1.00000
     55      -5.7399      1.00000
     56      -5.7399      1.00000
     57      -5.7399      1.00000
     58      -5.7399      1.00000
     59      -5.6271      1.00000
     60      -5.6271      1.00000
[...]
    155       9.2521      0.00000
    156       9.2893      0.00000
    157       9.4865      0.00000
    158       9.5188      0.00000
    159       9.7639      0.00000
    160       9.7890      0.00000
    161       9.8804      0.00000
    162      10.0299      0.00000
    163      10.0974      0.00000
    164      10.1296      0.00000
    165      10.1933      0.00000
    166      10.2194      0.00000
    167      10.3199      0.00000
    168      10.4146      0.00000
    169      10.4609      0.00000
 Fermi energy:         2.8264378119

 spin component 2

[...]

 k-point    36 :       0.5000    0.5000    0.5000
  band No.  band energies     occupation
      1     -42.1775      1.00000
      2     -42.1774      1.00000
      3     -42.1753      1.00000
      4     -42.1753      1.00000
      5     -42.1373      1.00000
      6     -42.1373      1.00000
      7     -42.1372      1.00000
      8     -42.1372      1.00000
      9     -42.1371      1.00000
     10     -42.1371      1.00000
     11     -42.1371      1.00000
     12     -42.1371      1.00000
     13     -37.8803      1.00000
     14     -37.8802      1.00000
     15     -22.1728      1.00000
     16     -22.1728      1.00000
     17     -22.1306      1.00000
     18     -22.1306      1.00000
     19     -22.1306      1.00000
     20     -22.1306      1.00000
     21     -19.1219      1.00000
     22     -19.1219      1.00000
     23     -19.0069      1.00000
     24     -19.0069      1.00000
     25     -19.0068      1.00000
     26     -19.0068      1.00000
     27     -18.1126      1.00000
     28     -18.1125      1.00000
     29     -18.0369      1.00000
     30     -18.0369      1.00000
     31     -18.0369      1.00000
     32     -18.0369      1.00000
     33     -17.9981      1.00000
     34     -17.9979      1.00000
     35     -17.8840      1.00000
     36     -17.8840      1.00000
     37     -17.8840      1.00000
     38     -17.8840      1.00000
     39     -17.7204      1.00000
     40     -17.7204      1.00000
     41     -17.7204      1.00000
     42     -17.7204      1.00000
     43     -17.6866      1.00000
     44     -17.6865      1.00000
     45      -8.5116      1.00000
     46      -8.5116      1.00000
     47      -7.8889      1.00000
     48      -7.8889      1.00000
     49      -7.8889      1.00000
     50      -7.8888      1.00000
     51      -6.2048      1.00000
     52      -6.2048      1.00000
     53      -5.8904      1.00000
     54      -5.8903      1.00000
     55      -5.5568      1.00000
     56      -5.5568      1.00000
     57      -5.5568      1.00000
     58      -5.5567      1.00000
     59      -5.5104      1.00000
     60      -5.5103      1.00000
[...]
    155       9.4953      0.00000
    156       9.5259      0.00000
    157       9.6175      0.00000
    158       9.6374      0.00000
    159       9.9553      0.00000
    160       9.9701      0.00000
    161      10.0445      0.00000
    162      10.1544      0.00000
    163      10.2567      0.00000
    164      10.3079      0.00000
    165      10.3859      0.00000
    166      10.5484      0.00000
    167      10.5948      0.00000
    168      10.6349      0.00000
    169      10.6517      0.00000

 soft charge-density along one line, spin component            1
         0         1         2         3         4         5         6         7         8         9
 total charge-density along one line

 soft charge-density along one line, spin component            2
         0         1         2         3         4         5         6         7         8         9
 total charge-density along one line

------------------------ aborting loop because EDIFF is reached ----------------------------------------

 total charge

# of ion       s       p       d       tot
    1        2.016   5.859   0.182   8.057
    2        2.016   5.859   0.182   8.057
    3        0.160   6.145   4.931  11.235
    4        0.160   6.145   4.931  11.235
    5        0.160   6.145   4.931  11.235
    6        0.160   6.145   4.931  11.235
    7        1.223   2.258   0.000   3.481
    8        1.223   2.258   0.000   3.481
    9        1.223   2.258   0.000   3.481
   10        1.223   2.258   0.000   3.481
   11        1.223   2.258   0.000   3.481
   12        1.223   2.258   0.000   3.481
   13        1.572   3.587   0.000   5.159
   14        1.572   3.587   0.000   5.159
   15        1.572   3.587   0.000   5.159
   16        1.572   3.587   0.000   5.159
   17        1.572   3.587   0.000   5.159
   18        1.572   3.587   0.000   5.159
   19        1.572   3.588   0.000   5.160
   20        1.572   3.588   0.000   5.160
   21        1.572   3.588   0.000   5.160
   22        1.572   3.588   0.000   5.160
   23        1.572   3.588   0.000   5.160
   24        1.572   3.588   0.000   5.160
   25        1.575   3.597   0.000   5.171
   26        1.575   3.597   0.000   5.171
   27        1.575   3.597   0.000   5.171
   28        1.575   3.597   0.000   5.171
   29        1.575   3.597   0.000   5.171
   30        1.575   3.597   0.000   5.171
   31        1.575   3.596   0.000   5.171
   32        1.575   3.596   0.000   5.171
   33        1.575   3.596   0.000   5.171
   34        1.575   3.596   0.000   5.171
   35        1.575   3.596   0.000   5.171
   36        1.575   3.596   0.000   5.171
tot         49.770 136.051  20.088 205.909

 magnetization (x)

[...]

  FORCE on cell =-STRESS in cart. coord.  units (eV):
  Direction    XX          YY          ZZ          XY          YZ          ZX
  Alpha Z   659.72581   659.72581   659.72581
  Ewald   -4448.13185 -4601.63002 -3850.61698   220.07810   376.61339   530.18287
  Hartree  2677.08190  2586.32709  3030.34225   130.11702   222.66478   313.46246
  E(xc)   -1269.72337 -1269.86801 -1269.16025     0.20739     0.35490     0.49962
  Local   -2200.03663 -1959.92319 -3134.69488  -344.25955  -589.12071  -829.34638
  n-local  -442.88267  -443.51857  -440.40459     0.91268     1.56141     2.19845
  augment   514.28284   514.51983   513.36017    -0.33983    -0.58152    -0.81865
  Kinetic  4509.78987  4514.46871  4491.57230    -6.70903   -11.48111   -16.16289
  Fock        0.00000     0.00000     0.00000     0.00000     0.00000     0.00000
  Total       0.10591     0.10166     0.12383     0.00678     0.01113     0.01548
  in kB       0.33358     0.32021     0.39003     0.02136     0.03507     0.04876

 VOLUME and BASIS-vectors are now :
  energy-cutoff  :      520.00
  volume of cell :      508.68
      direct lattice vectors                 reciprocal lattice vectors
     7.807381999  0.099380933  4.559914656     0.129545519 -0.046101379 -0.001497781
     2.664559797  7.339303837  4.559911790    -0.000875442  0.137501154 -0.001497853
     0.139886418  0.099371003  9.040383716    -0.064900406 -0.046101448  0.112125753

  length of vectors
     9.042008180  9.042016106  9.042011974     0.137512261  0.137512099  0.137512147

 FORCES acting on ions:
    Electron-Ion                     Ewald-Force                    Non-Local-Force
   -.261E+00 -.187E+00 -.457E+00   0.256E+00 0.183E+00 0.448E+00   0.623E-02 0.448E-02 0.108E-01
   -.262E+00 -.187E+00 -.451E+00   0.257E+00 0.183E+00 0.442E+00   0.625E-02 0.437E-02 0.107E-01
   -.181E+02 -.128E+02 -.310E+02   0.187E+02 0.133E+02 0.320E+02   -.627E+00 -.446E+00 -.107E+01
   -.181E+02 -.129E+02 -.310E+02   0.187E+02 0.133E+02 0.320E+02   -.627E+00 -.445E+00 -.107E+01
   0.194E+02 0.138E+02 0.332E+02   -.200E+02 -.142E+02 -.342E+02   0.599E+00 0.425E+00 0.102E+01
   0.194E+02 0.138E+02 0.332E+02   -.200E+02 -.142E+02 -.342E+02   0.599E+00 0.426E+00 0.102E+01
   0.500E+01 -.169E+00 -.286E+01   -.290E+01 0.161E+00 0.164E+01   -.216E+01 0.531E-02 0.126E+01
   0.345E+01 -.462E+01 -.102E+00   -.204E+01 0.264E+01 0.985E-01   -.145E+01 0.203E+01 0.308E-02
   -.323E+01 0.478E+01 -.107E+00   0.182E+01 -.279E+01 0.103E+00   0.144E+01 -.204E+01 0.419E-02
   0.149E+01 0.478E+01 -.285E+01   -.805E+00 -.279E+01 0.163E+01   -.705E+00 -.204E+01 0.126E+01
   -.179E+01 -.462E+01 0.295E+01   0.109E+01 0.264E+01 -.172E+01   0.714E+00 0.203E+01 -.126E+01
   -.495E+01 -.163E+00 0.296E+01   0.285E+01 0.156E+00 -.173E+01   0.215E+01 0.447E-02 -.126E+01
   -.215E+02 0.110E+02 0.972E+02   0.522E+02 -.774E+01 -.119E+03   -.307E+02 -.324E+01 0.223E+02
   0.473E+01 0.863E+02 0.506E+02   0.131E+02 -.120E+03 -.500E+02   -.179E+02 0.336E+02 -.550E+00
   0.830E+02 -.239E+02 0.505E+02   -.109E+03 0.519E+02 -.500E+02   0.259E+02 -.279E+02 -.551E+00
   0.328E+01 -.239E+02 0.972E+02   0.988E+01 0.519E+02 -.119E+03   -.132E+02 -.279E+02 0.223E+02
   0.417E+02 0.863E+02 0.289E+02   -.500E+02 -.120E+03 -.131E+02   0.828E+01 0.336E+02 -.158E+02
   0.952E+02 0.110E+02 0.289E+02   -.130E+03 -.774E+01 -.131E+02   0.345E+02 -.324E+01 -.158E+02
   -.948E+02 -.107E+02 -.290E+02   0.129E+03 0.742E+01 0.130E+02   -.344E+02 0.330E+01 0.159E+02
   -.828E+02 0.236E+02 -.502E+02   0.109E+03 -.516E+02 0.495E+02   -.258E+02 0.280E+02 0.657E+00
   -.495E+01 -.859E+02 -.502E+02   -.130E+02 0.120E+03 0.495E+02   0.179E+02 -.336E+02 0.656E+00
   -.413E+02 -.859E+02 -.290E+02   0.495E+02 0.120E+03 0.130E+02   -.821E+01 -.336E+02 0.159E+02
   -.309E+01 0.236E+02 -.968E+02   -.101E+02 -.516E+02 0.119E+03   0.132E+02 0.280E+02 -.222E+02
   0.213E+02 -.107E+02 -.968E+02   -.521E+02 0.740E+01 0.119E+03   0.308E+02 0.330E+01 -.222E+02
   0.713E+02 0.200E+02 0.829E+02   -.730E+02 -.336E+02 -.122E+03   0.177E+01 0.136E+02 0.393E+02
   0.742E+02 0.285E+02 0.776E+02   -.807E+02 -.556E+02 -.109E+03   0.645E+01 0.271E+02 0.310E+02
   0.514E+02 0.607E+02 0.776E+02   -.791E+02 -.579E+02 -.109E+03   0.277E+02 -.282E+01 0.310E+02
   0.424E+02 0.607E+02 0.829E+02   -.558E+02 -.579E+02 -.122E+03   0.134E+02 -.282E+01 0.393E+02
   0.312E+02 0.285E+02 0.103E+03   -.550E+02 -.556E+02 -.124E+03   0.239E+02 0.271E+02 0.208E+02
   0.372E+02 0.200E+02 0.103E+03   -.706E+02 -.336E+02 -.124E+03   0.334E+02 0.136E+02 0.208E+02
   -.371E+02 -.201E+02 -.104E+03   0.704E+02 0.337E+02 0.125E+03   -.333E+02 -.136E+02 -.211E+02
   -.516E+02 -.617E+02 -.782E+02   0.793E+02 0.591E+02 0.109E+03   -.276E+02 0.255E+01 -.311E+02
   -.752E+02 -.284E+02 -.782E+02   0.819E+02 0.554E+02 0.109E+03   -.670E+01 -.269E+02 -.311E+02
   -.312E+02 -.284E+02 -.104E+03   0.550E+02 0.554E+02 0.125E+03   -.238E+02 -.269E+02 -.211E+02
   -.428E+02 -.617E+02 -.834E+02   0.563E+02 0.591E+02 0.123E+03   -.136E+02 0.255E+01 -.394E+02
   -.723E+02 -.201E+02 -.834E+02   0.744E+02 0.337E+02 0.123E+03   -.206E+01 -.136E+02 -.394E+02
   0.190E+00 0.135E+00 0.326E+00   0.156E-12 0.568E-13 0.242E-12   -.200E+00 -.141E+00 -.344E+00

 POSITION                                       TOTAL-FORCE (eV/Angst)
      5.27935      3.75015      9.03464         0.001255      0.000820      0.002122
     10.58526      7.51919     18.11474         0.001192      0.000849      0.002032
      6.88909      4.89363     11.78941        -0.009979     -0.007188     -0.017094
      1.58317      1.12461      2.70930        -0.010032     -0.007141     -0.017206
      8.97547      6.37568     15.35989         0.009908      0.007043      0.017066
      3.66956      2.60665      6.27978         0.009900      0.007003      0.016993
      8.11896      1.96505     10.40935         0.008737     -0.002031      0.000699
      3.71574      0.48288      9.01589         0.008065     -0.003084     -0.000387
      6.84544      7.01920      9.05560         0.000205      0.009151      0.000846
      7.03025      3.34956      5.88918         0.000191      0.008557     -0.000856
      3.52914      4.15253     12.18338        -0.003406     -0.003134      0.008252
      2.44166      5.53534      7.66319        -0.004825     -0.003056      0.006968
      4.76062      4.27752     11.33053         0.006959     -0.012736      0.001698
      7.76010      2.03599      5.92654         0.012283      0.002502     -0.007539
      7.11896      3.08671     10.44674         0.006460      0.010541     -0.007661
      2.96514      6.65700      6.81034        -0.009636      0.011256      0.001568
      6.51976      5.70563      9.70979        -0.012663      0.002394      0.006897
      2.36817      0.60787      9.67007        -0.001912     -0.012778      0.007055
      8.19148      6.89237      8.39866         0.000612      0.014750     -0.002247
      3.44049      4.41277      7.62244        -0.006957     -0.006826      0.011319
      2.79803      5.46528     12.14266        -0.008856     -0.004118      0.011159
      4.03917      1.79562      8.35894         0.014012     -0.004177     -0.002031
      7.59313      0.84247     11.25952         0.013017     -0.007073     -0.000446
      5.79714      3.22264      6.73935        -0.002436      0.014702     -0.000314
      8.24783      1.53585      9.00586        -0.001948     -0.002453     -0.008256
      6.28466      6.74922     12.57069        -0.002826     -0.004672     -0.006112
      5.80083      7.28219      8.05049        -0.005713     -0.001113     -0.006568
      6.80729      3.71195     13.52606        -0.002735     -0.001216     -0.007569
      2.70043      3.07958     11.60663        -0.004338     -0.005033     -0.005741
      8.96304      5.20549     11.64634        -0.005343     -0.002136     -0.005351
      1.59490      2.29547      6.43254         0.003975      0.000003     -0.002635
      4.75964      0.22614     10.02384         0.003240     -0.004153      0.000548
      4.28218      0.75013      5.50365        -0.002802      0.003826     -0.000016
      7.85862      4.41979      6.47228         0.001921      0.004397     -0.002203
      3.75492      3.79640      4.54728        -0.001425     -0.003866      0.002168
      2.31961      5.96513      9.06746        -0.004104      0.000192      0.002841
    total drift:                               -0.010210     -0.006522     -0.017963

  FREE ENERGIE OF THE ION-ELECTRON SYSTEM (eV)
  free  energy   TOTEN  =      -244.04108727 eV

  energy  without entropy=     -244.04108727  energy(sigma->0) =     -244.04108727

 reached required accuracy - stopping structural energy minimisation

 total charge

[...]

 magnetization (x)

# of ion       s       p       d       tot
    1        0.000   0.000   0.002   0.003
    2        0.000   0.000   0.002   0.003
    3        0.019   0.020   4.495   4.534
    4        0.019   0.020   4.495   4.534
    5        0.019   0.020   4.495   4.534
    6        0.019   0.020   4.495   4.534
    7        0.007   0.016   0.000   0.023
    8        0.007   0.016   0.000   0.023
    9        0.007   0.016   0.000   0.023
   10        0.007   0.016   0.000   0.023
   11        0.007   0.016   0.000   0.023
   12        0.007   0.016   0.000   0.023
   13        0.005   0.021   0.000   0.026
   14        0.005   0.021   0.000   0.026
   15        0.005   0.021   0.000   0.026
   16        0.005   0.021   0.000   0.026
   17        0.005   0.021   0.000   0.026
   18        0.005   0.021   0.000   0.026
   19        0.005   0.021   0.000   0.026
   20        0.005   0.021   0.000   0.026
   21        0.005   0.021   0.000   0.026
   22        0.005   0.021   0.000   0.026
   23        0.005   0.021   0.000   0.026
   24        0.005   0.021   0.000   0.026
   25        0.006   0.023   0.000   0.029
   26        0.006   0.023   0.000   0.029
   27        0.006   0.023   0.000   0.029
   28        0.006   0.023   0.000   0.029
   29        0.006   0.023   0.000   0.029
   30        0.006   0.023   0.000   0.029
   31        0.006   0.023   0.000   0.029
   32        0.006   0.023   0.000   0.029
   33        0.006   0.023   0.000   0.029
   34        0.006   0.023   0.000   0.029
   35        0.006   0.023   0.000   0.029
   36        0.006   0.023   0.000   0.029
tot          0.256   0.709  17.983  18.949