 vasp.6.1.2 22Jul20 (build Mar 19 2021 09:51:12) complex

 executed on             LinuxIFC date 2021.07.24  18:41:02

 INCAR:
 POTCAR:    PAW_PBE Ca_sv 06Sep2000
 POTCAR:    PAW_PBE Mn_pv 02Aug2007
 POTCAR:    PAW_PBE O 08Apr2002
 POTCAR:    PAW_PBE Ca_sv 06Sep2000
   VRHFIN =Ca: 3s3p4s

   TITEL  = PAW_PBE Ca_sv 06Sep2000
   POMASS =   40.078; ZVAL   =   10.000    mass and valenz
   ENMAX  =  266.622; ENMIN  =  199.967 eV

 POTCAR:    PAW_PBE Mn_pv 02Aug2007
   VRHFIN =Mn: 3p4s3d

   TITEL  = PAW_PBE Mn_pv 02Aug2007
   POMASS =   54.938; ZVAL   =   13.000    mass and valenz
   ENMAX  =  269.864; ENMIN  =  202.398 eV

 POTCAR:    PAW_PBE O 08Apr2002
   VRHFIN =O: s2p4

   TITEL  = PAW_PBE O 08Apr2002
   POMASS =   16.000; ZVAL   =    6.000    mass and valenz
   ENMAX  =  400.000; ENMIN  =  300.000 eV

 Optimization of the real space projectors (new method)

 maximal supplied QI-value         = 16.25
 optimisation between [QCUT,QGAM] = [ 11.54, 23.24] = [ 37.28,151.24] Ry
 Optimized for a Real-space Cutoff    1.58 Angstroem

   l    n(q)    QCUT    max X(q) W(low)/X(q) W(high)/X(q)  e(spline)
   0     11    11.539    11.817    0.25E-04    0.22E-05    0.26E-07
   0     11    11.539     8.461    0.39E-04    0.49E-05    0.55E-07
   1     11    11.539     3.957    0.21E-05    0.44E-05    0.32E-07
   1     11    11.539     4.314    0.56E-04    0.44E-04    0.19E-06
   2     10    11.539    14.565    0.25E-03    0.21E-04    0.75E-06
   2     10    11.539    14.552    0.23E-03    0.22E-04    0.72E-06
 Optimization of the real space projectors (new method)

[...]

   l    n(q)    QCUT    max X(q) W(low)/X(q) W(high)/X(q)  e(spline)
   1     10    11.539     3.658    0.56E-04    0.12E-03    0.13E-06
   1     10    11.539     5.612    0.11E-03    0.23E-03    0.24E-06
   2      9    11.539    55.373    0.45E-04    0.92E-04    0.22E-06
   2      9    11.539    50.863    0.47E-04    0.95E-04    0.22E-06
   0     10    11.539    79.536    0.46E-04    0.27E-04    0.11E-06
   0     10    11.539    38.668    0.38E-04    0.25E-04    0.10E-06
 Optimization of the real space projectors (new method)

 maximal supplied QI-value         = 24.76
 optimisation between [QCUT,QGAM] = [ 11.64, 23.27] = [ 37.91,151.63] Ry
 Optimized for a Real-space Cutoff    1.14 Angstroem

   l    n(q)    QCUT    max X(q) W(low)/X(q) W(high)/X(q)  e(spline)
   0      8    11.635    20.381    0.10E-03    0.33E-03    0.24E-06
   0      8    11.635    15.268    0.11E-03    0.35E-03    0.26E-06
   1      7    11.635     5.964    0.24E-03    0.31E-03    0.30E-06
   1      7    11.635     5.382    0.22E-03    0.25E-03    0.26E-06
  PAW_PBE Ca_sv 06Sep2000               :
  PAW_PBE Mn_pv 02Aug2007               :
  PAW_PBE O 08Apr2002                   :

 POSCAR: Ca4 Mn4 O12
  positions in direct lattice
  velocities in cartesian coordinates

 METAGGA = SCAN     LMAXTAU =  6    LMIXTAU =  F

 ion  position               nearest neighbor table
   1  0.537  0.250  0.507-  10 2.32  20 2.33  14 2.33   9 2.42  19 2.56  13 2.56   7 3.08   5 3.08

   2  0.037  0.250  0.993-   9 2.32  19 2.33  13 2.33  10 2.42  14 2.56  20 2.56   6 3.08   8 3.08

[...]

   9  0.988  0.250  0.431-   5 1.90   7 1.90   2 2.32   1 2.42
  10  0.488  0.250  0.069-   6 1.90   8 1.90   1 2.32   2 2.42
  11  0.012  0.750  0.569-   5 1.90   7 1.90   4 2.32   3 2.42
  12  0.512  0.750  0.931-   6 1.90   8 1.90   3 2.32   4 2.42
  13  0.789  0.035  0.789-   8 1.90   5 1.91   2 2.33   1 2.56
  14  0.289  0.465  0.711-   7 1.90   6 1.91   1 2.33   2 2.56
  15  0.211  0.535  0.211-   6 1.91   7 1.91   4 2.33   3 2.56
  16  0.711  0.965  0.289-   5 1.91   8 1.91   3 2.33   4 2.56
  17  0.211  0.965  0.211-   8 1.91   5 1.91   4 2.33   3 2.56
  18  0.711  0.535  0.289-   7 1.91   6 1.91   3 2.33   4 2.56
  19  0.789  0.465  0.789-   6 1.90   7 1.91   2 2.33   1 2.56
  20  0.289  0.035  0.711-   5 1.90   8 1.91   1 2.33   2 2.56

IMPORTANT INFORMATION: All symmetrisations will be switched off!
NOSYMM: (Re-)initialisation of all symmetry stuff for point group C_1.

                                     Primitive cell

  volume of cell :     207.5732

  direct lattice vectors                    reciprocal lattice vectors
     5.289838544  0.000000085 -0.000000011     0.189041687 -0.000000003  0.000000000
     0.000000125  7.452132901  0.000000559    -0.000000002  0.134189770 -0.000000010
    -0.000000013  0.000000399  5.265606181     0.000000000 -0.000000014  0.189911658

  length of vectors
     5.289838544  7.452132901  5.265606181     0.189041687  0.134189770  0.189911658

  position of ions in fractional coordinates (direct lattice)
     0.537483209  0.250000025  0.507140194
     0.037483178  0.250000028  0.992859817
     0.462515341  0.749999986  0.492872217
     0.962515333  0.749999973  0.007127774
     0.000050288  0.999989576  0.499977792
     0.500050126  0.500010400  0.000022161
     0.000050162  0.500010398  0.499977857
     0.500050306  0.999989587  0.000022188
     0.987827060  0.249999940  0.430730518
     0.487827051  0.250000087  0.069269499
     0.012131616  0.750000059  0.569249814
     0.512131596  0.749999920  0.930750180
     0.788548315  0.035478265  0.789413205
     0.288548206  0.464521764  0.710586872
     0.211423055  0.535481481  0.210575743
     0.711423022  0.964518504  0.289424324
     0.211422898  0.964518492  0.210575804
     0.711422953  0.535481482  0.289424096
     0.788548096  0.464521760  0.789413309
     0.288548190  0.035478273  0.710586634

  ion indices of the primitive-cell ions
   primitive index   ion index
                 1           1
                 2           2
                 3           3
                 4           4
                 5           5
                 6           6
                 7           7
                 8           8
                 9           9
                10          10
                11          11
                12          12
                13          13
                14          14
                15          15
                16          16
                17          17
                18          18
                19          19
                20          20

 KPOINTS: K-points file

Automatic generation of k-mesh.
Space group operators:
 irot       det(A)        alpha          n_x          n_y          n_z        tau_x        tau_y        tau_z
    1     1.000000     0.000000     1.000000     0.000000     0.000000     0.000000     0.000000     0.000000

 Subroutine IBZKPT returns following result:

 Found    123 irreducible k-points:

 Following reciprocal coordinates:
            Coordinates               Weight
  0.000000  0.000000  0.000000      1.000000
  0.142857  0.000000 -0.000000      2.000000
  0.285714 -0.000000  0.000000      2.000000
  0.428571  0.000000 -0.000000      2.000000
 -0.000000  0.200000 -0.000000      2.000000
  0.142857  0.200000 -0.000000      2.000000
  0.142857 -0.200000 -0.000000      2.000000
  0.285714  0.200000  0.000000      2.000000
  0.285714 -0.200000 -0.000000      2.000000
  0.428571  0.200000 -0.000000      2.000000
  0.428571 -0.200000 -0.000000      2.000000
  0.000000  0.400000 -0.000000      2.000000
  0.142857  0.400000 -0.000000      2.000000
  0.142857 -0.400000  0.000000      2.000000
  0.285714  0.400000  0.000000      2.000000
  0.285714 -0.400000 -0.000000      2.000000
  0.428571  0.400000 -0.000000      2.000000
  0.428571 -0.400000 -0.000000      2.000000
  0.000000 -0.000000  0.142857      2.000000
  0.142857 -0.000000  0.142857      2.000000
 -0.142857  0.000000  0.142857      2.000000
  0.285714 -0.000000  0.142857      2.000000
 -0.285714 -0.000000  0.142857      2.000000
  0.428571 -0.000000  0.142857      2.000000
 -0.428571 -0.000000  0.142857      2.000000
 -0.000000  0.200000  0.142857      2.000000
  0.000000 -0.200000  0.142857      2.000000
  0.142857  0.200000  0.142857      2.000000
 -0.142857 -0.200000  0.142857      2.000000
  0.142857 -0.200000 -0.142857      2.000000
 -0.142857  0.200000 -0.142857      2.000000
  0.285714  0.200000  0.142857      2.000000
 -0.285714 -0.200000  0.142857      2.000000
  0.285714 -0.200000 -0.142857      2.000000
 -0.285714  0.200000 -0.142857      2.000000
  0.428571  0.200000  0.142857      2.000000
 -0.428571 -0.200000  0.142857      2.000000
  0.428571 -0.200000 -0.142857      2.000000
 -0.428571  0.200000 -0.142857      2.000000
 -0.000000  0.400000  0.142857      2.000000
 -0.000000 -0.400000  0.142857      2.000000
  0.142857  0.400000  0.142857      2.000000
 -0.142857 -0.400000  0.142857      2.000000
  0.142857 -0.400000 -0.142857      2.000000
 -0.142857  0.400000 -0.142857      2.000000
  0.285714  0.400000  0.142857      2.000000
 -0.285714 -0.400000  0.142857      2.000000
  0.285714 -0.400000 -0.142857      2.000000
 -0.285714  0.400000 -0.142857      2.000000
  0.428571  0.400000  0.142857      2.000000
 -0.428571 -0.400000  0.142857      2.000000
  0.428571 -0.400000 -0.142857      2.000000
 -0.428571  0.400000 -0.142857      2.000000
  0.000000 -0.000000  0.285714      2.000000
  0.142857 -0.000000  0.285714      2.000000
 -0.142857 -0.000000  0.285714      2.000000
  0.285714 -0.000000  0.285714      2.000000
 -0.285714  0.000000  0.285714      2.000000
  0.428571  0.000000  0.285714      2.000000
 -0.428571 -0.000000  0.285714      2.000000
[...]
 -0.428571  0.200000 -0.428571      2.000000
 -0.000000  0.400000  0.428571      2.000000
 -0.000000 -0.400000  0.428571      2.000000
  0.142857  0.400000  0.428571      2.000000
 -0.142857 -0.400000  0.428571      2.000000
  0.142857 -0.400000 -0.428571      2.000000
 -0.142857  0.400000 -0.428571      2.000000
  0.285714  0.400000  0.428571      2.000000
 -0.285714 -0.400000  0.428571      2.000000
  0.285714 -0.400000 -0.428571      2.000000
 -0.285714  0.400000 -0.428571      2.000000
  0.428571  0.400000  0.428571      2.000000
 -0.428571 -0.400000  0.428571      2.000000
  0.428571 -0.400000 -0.428571      2.000000
 -0.428571  0.400000 -0.428571      2.000000

 Following cartesian coordinates:
            Coordinates               Weight
  0.000000  0.000000  0.000000      1.000000
  0.027006 -0.000000  0.000000      2.000000
  0.054012 -0.000000  0.000000      2.000000
  0.081018 -0.000000  0.000000      2.000000
 -0.000000  0.026838 -0.000000      2.000000
  0.027006  0.026838 -0.000000      2.000000
  0.027006 -0.026838  0.000000      2.000000
  0.054012  0.026838 -0.000000      2.000000
  0.054012 -0.026838  0.000000      2.000000
  0.081018  0.026838 -0.000000      2.000000
  0.081018 -0.026838  0.000000      2.000000
 -0.000000  0.053676 -0.000000      2.000000
  0.027006  0.053676 -0.000000      2.000000
  0.027006 -0.053676  0.000000      2.000000
  0.054012  0.053676 -0.000000      2.000000
  0.054012 -0.053676  0.000000      2.000000
  0.081018  0.053676 -0.000000      2.000000
  0.081018 -0.053676  0.000000      2.000000
  0.000000 -0.000000  0.027130      2.000000
  0.027006 -0.000000  0.027130      2.000000
 -0.027006 -0.000000  0.027130      2.000000
  0.054012 -0.000000  0.027130      2.000000
 -0.054012 -0.000000  0.027130      2.000000
  0.081018 -0.000000  0.027130      2.000000
[...]
  o =  0.4629  v = -0.1107  0.1529 -0.2138  0.6863 -0.6690  0.0000  0.0000  0.0000  0.0000  0.0000      0.0000  0.0000  0.0000  0.0000  0.0000  0.0000  0.0000  0.0000  0.0000  0.0000
  o =  0.4653  v =  0.0746  0.1627 -0.4613 -0.6868 -0.5323  0.0000  0.0000  0.0000  0.0000  0.0000      0.0000  0.0000  0.0000  0.0000  0.0000  0.0000  0.0000  0.0000  0.0000  0.0000
  o =  0.9684  v =  0.5229 -0.1187 -0.7255  0.2364  0.3607  0.0000  0.0000  0.0000  0.0000  0.0000      0.0000  0.0000  0.0000  0.0000  0.0000  0.0000  0.0000  0.0000  0.0000  0.0000
  o =  0.9695  v =  0.0986 -0.9483  0.0699 -0.0351 -0.2914  0.0000  0.0000  0.0000  0.0000  0.0000      0.0000  0.0000  0.0000  0.0000  0.0000  0.0000  0.0000  0.0000  0.0000  0.0000
  o =  0.9730  v =  0.8361  0.1919  0.4584  0.0084 -0.2323  0.0000  0.0000  0.0000  0.0000  0.0000      0.0000  0.0000  0.0000  0.0000  0.0000  0.0000  0.0000  0.0000  0.0000  0.0000

 eigenvalue-minimisations  : 30717
 total energy-change (2. order) : 0.8016716E-05  (-0.4110538E-06)
 number of electron     163.9999977 magnetization      12.0000004
 augmentation part       47.0424624 magnetization       8.7032587

 Free energy of the ion-electron system (eV)
  alpha Z        PSCENC =       913.92253112
  Ewald energy   TEWEN  =    -12913.29546012
  -Hartree energ DENC   =     -4151.51975875
  -exchange      EXHF   =         0.00000000
  -V(xc)+E(xc)   XCENC  =       931.65429083
  PAW double counting   =     17694.08834537   -17997.39148365
  entropy T*S    EENTRO =        -0.00000000
  eigenvalues    EBANDS =     -2024.32074531
  atomic energy  EATOM  =     17313.69303802
  Solvation  Ediel_sol  =         0.00000000
  free energy    TOTEN  =      -233.16924250 eV

  energy without entropy =     -233.16924250  energy(sigma->0) =     -233.16924250

 average (electrostatic) potential at core
  the test charge radii are     1.1137  0.9577  0.7215
  (the norm of the test charge is              1.0000)
       1 -46.2591       2 -46.2591       3 -46.2598       4 -46.2598       5 -76.9173
       6 -76.9173       7 -76.9173       8 -76.9173       9 -73.4521      10 -73.4521
      11 -73.4525      12 -73.4525      13 -73.4411      14 -73.4411      15 -73.4419
      16 -73.4419      17 -73.4419      18 -73.4419      19 -73.4411      20 -73.4411

 E-fermi :   4.0287     XC(G=0): -12.4628     alpha+bet :-14.0649

[...]

 k-point     1 :       0.0000    0.0000    0.0000
  band No.  band energies     occupation
      1     -48.5783      1.00000
      2     -48.5776      1.00000
      3     -48.5768      1.00000
      4     -48.5759      1.00000
      5     -48.5723      1.00000
      6     -48.5707      1.00000
      7     -48.5684      1.00000
      8     -48.5681      1.00000
      9     -48.5670      1.00000
     10     -48.5661      1.00000
     11     -48.5637      1.00000
     12     -48.5636      1.00000
     13     -35.2852      1.00000
     14     -35.2717      1.00000
     15     -35.2586      1.00000
     16     -35.2478      1.00000
     17     -16.4102      1.00000
     18     -16.0427      1.00000
     19     -15.9863      1.00000
     20     -15.8255      1.00000
     21     -15.7828      1.00000
     22     -15.6866      1.00000
     23     -15.5187      1.00000
     24     -15.5176      1.00000
     25     -15.4607      1.00000
     26     -15.4494      1.00000
     27     -15.4330      1.00000
     28     -15.3743      1.00000
     29     -15.2288      1.00000
     30     -14.0732      1.00000
     31     -13.8848      1.00000
     32     -13.7152      1.00000
     33     -13.6465      1.00000
     34     -13.6422      1.00000
     35     -13.6380      1.00000
     36     -13.5760      1.00000
     37     -13.5117      1.00000
     38     -13.4493      1.00000
     39     -13.1826      1.00000
     40     -13.1097      1.00000
     41      -2.5586      1.00000
     42      -2.2445      1.00000
     43      -2.2414      1.00000
     44      -2.2357      1.00000
     45      -2.1697      1.00000
     46      -2.0901      1.00000
     47      -2.0538      1.00000
     48      -1.8712      1.00000
     49      -1.7807      1.00000
     50      -1.7486      1.00000
     51      -1.4523      1.00000
     52      -1.2961      1.00000
     53      -1.1506      1.00000
     54      -1.0543      1.00000
     55      -0.7598      1.00000
     56      -0.4392      1.00000
     57      -0.4262      1.00000
     58      -0.3585      1.00000
     59      -0.1131      1.00000
     60       0.0756      1.00000
[...]
     91       4.7880      0.00000
     92       5.7475      0.00000
     93       7.0273      0.00000
     94       8.6244      0.00000
     95       8.6774      0.00000
     96       8.6877      0.00000
     97      11.1901      0.00000
     98      11.2659      0.00000
     99      11.5830      0.00000
    100      11.6768      0.00000
    101      11.6836      0.00000
    102      11.8131      0.00000
    103      11.9995      0.00000
    104      12.2701      0.00000
    105      12.4481      0.00000

[...]

 spin component 2

[...]

 k-point   123 :      -0.4286    0.4000   -0.4286
  band No.  band energies     occupation
      1     -44.6480      1.00000
      2     -44.6477      1.00000
      3     -44.6474      1.00000
      4     -44.6469      1.00000
      5     -44.6425      1.00000
      6     -44.6425      1.00000
      7     -44.6400      1.00000
      8     -44.6399      1.00000
      9     -44.6239      1.00000
     10     -44.6235      1.00000
     11     -44.6232      1.00000
     12     -44.6229      1.00000
     13     -35.2629      1.00000
     14     -35.2617      1.00000
     15     -35.2593      1.00000
     16     -35.2581      1.00000
     17     -16.2666      1.00000
     18     -16.2589      1.00000
     19     -16.1405      1.00000
     20     -16.1342      1.00000
     21     -15.8131      1.00000
     22     -15.7934      1.00000
     23     -15.6490      1.00000
     24     -15.6364      1.00000
     25     -15.4316      1.00000
     26     -15.4159      1.00000
     27     -15.4084      1.00000
     28     -15.3944      1.00000
     29     -13.8949      1.00000
     30     -13.8841      1.00000
     31     -13.7874      1.00000
     32     -13.7338      1.00000
     33     -13.6383      1.00000
     34     -13.6174      1.00000
     35     -13.5759      1.00000
     36     -13.5361      1.00000
     37     -13.3432      1.00000
     38     -13.3170      1.00000
     39     -13.2631      1.00000
     40     -13.2423      1.00000
     41      -1.3250      1.00000
     42      -1.2776      1.00000
     43      -1.2113      1.00000
     44      -1.1592      1.00000
     45      -0.4983      1.00000
     46      -0.4923      1.00000
     47      -0.2969      1.00000
     48      -0.2388      1.00000
     49      -0.1416      1.00000
     50      -0.1180      1.00000
     51       0.2306      1.00000
     52       0.3030      1.00000
     53       0.3989      1.00000
     54       0.4385      1.00000
     55       0.5779      1.00000
     56       0.6182      1.00000
     57       1.2010      1.00000
     58       1.2299      1.00000
     59       1.5384      1.00000
     60       1.6331      1.00000
[...]
     91       7.8452      0.00000
     92       7.8669      0.00000
     93       9.1218      0.00000
     94       9.2224      0.00000
     95       9.6560      0.00000
     96       9.7449      0.00000
     97      12.0935      0.00000
     98      12.1146      0.00000
     99      12.2521      0.00000
    100      12.2733      0.00000
    101      12.4102      0.00000
    102      12.4535      0.00000
    103      12.5402      0.00000
    104      12.5759      0.00000
    105      12.8210      0.00000

 soft charge-density along one line, spin component           1
         0         1         2         3         4         5         6         7         8         9
 total charge-density along one line

 soft charge-density along one line, spin component           2
         0         1         2         3         4         5         6         7         8         9
 total charge-density along one line

------------------------ aborting loop because EDIFF is reached ----------------------------------------

 total charge

# of ion       s       p       d       tot
    1        2.026   5.875   0.262   8.163
    2        2.026   5.875   0.262   8.163
    3        2.026   5.875   0.262   8.163
    4        2.026   5.875   0.262   8.163
    5        0.372   6.450   4.776  11.598
    6        0.372   6.450   4.776  11.598
    7        0.372   6.450   4.776  11.598
    8        0.372   6.450   4.776  11.598
    9        1.571   3.522   0.000   5.093
   10        1.571   3.522   0.000   5.093
   11        1.571   3.522   0.000   5.093
   12        1.571   3.522   0.000   5.093
   13        1.571   3.516   0.000   5.087
   14        1.571   3.516   0.000   5.087
   15        1.571   3.516   0.000   5.087
   16        1.571   3.516   0.000   5.087
   17        1.571   3.516   0.000   5.087
   18        1.571   3.516   0.000   5.087
   19        1.571   3.516   0.000   5.087
   20        1.571   3.516   0.000   5.087
tot         28.440  91.520  20.151 140.110

 magnetization (x)

[...]

  FORCE on cell =-STRESS in cart. coord.  units (eV):
  Direction    XX          YY          ZZ          XY          YZ          ZX
  Alpha Z   913.92253   913.92253   913.92253
  Ewald   -4363.68715 -4261.49945 -4288.14882     0.00029    -0.00006     0.00009
  Hartree  1352.52527  1410.68839  1388.39323     0.00015     0.00001     0.00005
  E(xc)    -912.24125  -912.26550  -912.32721     0.00000    -0.00000     0.00000
  Local     294.27768   135.99464   186.95114    -0.00044     0.00005    -0.00013
  n-local  -543.82962  -542.90500  -543.59154    -0.00000     0.00002    -0.00000
  augment   626.10297   625.92500   625.51964     0.00000     0.00000     0.00000
  Kinetic  2633.13683  2630.49284  2629.18060    -0.00001    -0.00003     0.00001
  Fock        0.00000     0.00000     0.00000     0.00000     0.00000     0.00000
  Total       0.20727     0.35344    -0.10043    -0.00001    -0.00001     0.00001
  in kB       1.59986     2.72807    -0.77519    -0.00004    -0.00005     0.00005

 VOLUME and BASIS-vectors are now :
  energy-cutoff  :      520.00
  volume of cell :      207.57
      direct lattice vectors                 reciprocal lattice vectors
     5.289838544  0.000000085 -0.000000011     0.189041687 -0.000000003  0.000000000
     0.000000125  7.452132901  0.000000559    -0.000000002  0.134189770 -0.000000010
    -0.000000013  0.000000399  5.265606181     0.000000000 -0.000000014  0.189911658

  length of vectors
     5.289838544  7.452132901  5.265606181     0.189041687  0.134189770  0.189911658

 FORCES acting on ions
    electron-ion (+dipol)            ewald-force                    non-local-force                 convergence-correction
   0.429E+02 0.890E-04 0.125E+02   -.429E+02 -.949E-04 -.127E+02   -.936E-01 0.585E-05 0.196E+00   0.475E-04 0.201E-05 -.432E-04
   0.429E+02 0.218E-03 -.125E+02   -.429E+02 -.221E-03 0.127E+02   -.936E-01 0.311E-05 -.196E+00   0.511E-04 -.128E-05 0.557E-04
   -.430E+02 -.419E-04 -.126E+02   0.429E+02 0.462E-04 0.128E+02   0.898E-01 -.309E-05 -.197E+00   -.380E-04 -.355E-05 0.445E-04
   -.430E+02 -.156E-03 0.126E+02   0.429E+02 0.156E-03 -.128E+02   0.898E-01 -.127E-04 0.197E+00   -.463E-04 -.140E-05 -.509E-04
   0.111E+00 -.137E+00 -.737E-01   -.101E+00 0.116E+00 0.771E-01   -.627E-02 0.207E-01 -.440E-02   0.160E-04 -.800E-05 -.219E-04
   0.111E+00 0.137E+00 0.735E-01   -.101E+00 -.116E+00 -.770E-01   -.627E-02 -.207E-01 0.439E-02   0.117E-04 0.200E-04 0.236E-04
   0.111E+00 0.137E+00 -.735E-01   -.101E+00 -.116E+00 0.770E-01   -.627E-02 -.207E-01 -.439E-02   0.145E-04 0.103E-04 -.207E-04
   0.111E+00 -.137E+00 0.737E-01   -.101E+00 0.116E+00 -.771E-01   -.626E-02 0.207E-01 0.440E-02   0.119E-04 -.146E-04 0.165E-04
   -.130E+02 -.433E-03 0.497E+02   0.135E+02 0.400E-03 -.547E+02   -.541E+00 -.236E-05 0.502E+01   -.123E-03 0.398E-04 -.260E-03
   -.130E+02 0.780E-03 -.497E+02   0.135E+02 -.769E-03 0.547E+02   -.541E+00 0.143E-04 -.502E+01   -.126E-03 -.334E-04 0.254E-03
   0.131E+02 0.496E-03 -.498E+02   -.136E+02 -.471E-03 0.548E+02   0.559E+00 0.991E-05 -.503E+01   0.117E-03 -.404E-04 0.256E-03
   0.131E+02 -.690E-03 0.498E+02   -.136E+02 0.670E-03 -.548E+02   0.559E+00 -.480E-05 0.503E+01   0.116E-03 0.329E-04 -.248E-03
   -.242E+02 -.274E+02 -.284E+02   0.270E+02 0.306E+02 0.314E+02   -.278E+01 -.321E+01 -.300E+01   0.129E-03 0.164E-03 0.180E-03
   -.242E+02 0.274E+02 0.284E+02   0.270E+02 -.306E+02 -.314E+02   -.278E+01 0.321E+01 0.300E+01   0.143E-03 -.163E-03 -.165E-03
   0.240E+02 -.273E+02 0.287E+02   -.268E+02 0.305E+02 -.317E+02   0.277E+01 -.321E+01 0.304E+01   -.176E-03 0.169E-03 -.128E-03
   0.240E+02 0.273E+02 -.287E+02   -.268E+02 -.305E+02 0.317E+02   0.277E+01 0.321E+01 -.304E+01   -.197E-03 -.170E-03 0.115E-03
   0.240E+02 0.273E+02 0.287E+02   -.268E+02 -.305E+02 -.317E+02   0.277E+01 0.321E+01 0.304E+01   -.128E-03 -.165E-03 -.181E-03
   0.240E+02 -.273E+02 -.287E+02   -.268E+02 0.305E+02 0.317E+02   0.277E+01 -.321E+01 -.304E+01   -.142E-03 0.168E-03 0.166E-03
   -.242E+02 0.274E+02 -.284E+02   0.270E+02 -.306E+02 0.314E+02   -.278E+01 0.321E+01 -.300E+01   0.180E-03 -.165E-03 0.128E-03
   -.242E+02 -.274E+02 0.284E+02   0.270E+02 0.306E+02 -.314E+02   -.278E+01 -.321E+01 0.300E+01   0.197E-03 0.168E-03 -.114E-03
   0.770E-01 -.164E-04 -.504E-05   -.249E-13 -.675E-13 0.746E-13   -.537E-01 -.165E-04 -.625E-05   0.588E-04 0.843E-05 0.569E-05

 POSITION                                       TOTAL-FORCE (eV/Angst)
      2.84320      1.86303      2.67040        -0.020971      0.000003     -0.011212
      0.19828      1.86303      5.22801        -0.020971     -0.000000      0.011212
      2.44663      5.58910      2.59527         0.020224     -0.000001      0.012857
      5.09155      5.58910      0.03753         0.020227     -0.000014     -0.012866
      0.00027      7.45206      2.63269         0.002235     -0.000268     -0.000663
      2.64518      3.72614      0.00012         0.002225      0.000270      0.000663
      0.00027      3.72614      2.63269         0.002224      0.000270     -0.000662
      2.64519      7.45206      0.00012         0.002230     -0.000271      0.000665
      5.22545      1.86303      2.26806        -0.014919      0.000005     -0.006442
      2.58053      1.86303      0.36475        -0.014919     -0.000007      0.006441
      0.06417      5.58910      2.99745         0.013238     -0.000004      0.005285
      2.70909      5.58910      4.90096         0.013237      0.000009     -0.005282
      4.17129      0.26439      4.15674         0.006457      0.026373     -0.011170
      1.52637      3.46168      3.74167         0.006461     -0.026372      0.011171
      1.11839      3.99048      1.10881        -0.007478      0.026408      0.010691
      3.76331      7.18772      1.52400        -0.007479     -0.026406     -0.010695
      1.11839      7.18772      1.10881        -0.007472     -0.026405      0.010687
      3.76331      3.99048      1.52399        -0.007478      0.026409     -0.010687
      4.17129      3.46168      4.15674         0.006463     -0.026372     -0.011175
      1.52637      0.26439      3.74167         0.006467      0.026372      0.011180
    total drift:                                0.023320     -0.000025     -0.000006

  FREE ENERGIE OF THE ION-ELECTRON SYSTEM (eV)
  free  energy   TOTEN  =      -233.16924250 eV

  energy  without entropy=     -233.16924250  energy(sigma->0) =     -233.16924250

 reached required accuracy - stopping structural energy minimisation

 total charge

[...]

 magnetization (x)

# of ion       s       p       d       tot
    1        0.001   0.001   0.004   0.006
    2        0.001   0.001   0.004   0.006
    3        0.001   0.001   0.004   0.006
    4        0.001   0.001   0.004   0.006
    5        0.009   0.019   2.869   2.897
    6        0.009   0.019   2.869   2.897
    7        0.009   0.019   2.869   2.897
    8        0.009   0.019   2.869   2.897
    9        0.001   0.010   0.000   0.011
   10        0.001   0.010   0.000   0.011
   11        0.001   0.011   0.000   0.011
   12        0.001   0.011   0.000   0.011
   13        0.001   0.006   0.000   0.006
   14        0.001   0.006   0.000   0.006
   15        0.001   0.006   0.000   0.006
   16        0.001   0.006   0.000   0.006
   17        0.001   0.006   0.000   0.006
   18        0.001   0.006   0.000   0.006
   19        0.001   0.006   0.000   0.006
   20        0.001   0.006   0.000   0.006
tot          0.050   0.166  11.492  11.708