 vasp.6.1.2 22Jul20 (build Dec 05 2020 14:50:36) complex

 executed on         CrayXC-Intel date 2021.06.19  01:46:50

 INCAR:
 POTCAR:    PAW_PBE Ca_sv 06Sep2000
 POTCAR:    PAW_PBE V_pv 07Sep2000
 POTCAR:    PAW_PBE O 08Apr2002
 POTCAR:    PAW_PBE Ca_sv 06Sep2000
   VRHFIN =Ca: 3s3p4s

   TITEL  = PAW_PBE Ca_sv 06Sep2000
   POMASS =   40.078; ZVAL   =   10.000    mass and valenz
   ENMAX  =  266.622; ENMIN  =  199.967 eV

 POTCAR:    PAW_PBE V_pv 07Sep2000
   VRHFIN =V: p6 d4 s1

   TITEL  = PAW_PBE V_pv 07Sep2000
   POMASS =   50.941; ZVAL   =   11.000    mass and valenz
   ENMAX  =  263.673; ENMIN  =  197.755 eV

 POTCAR:    PAW_PBE O 08Apr2002
   VRHFIN =O: s2p4

   TITEL  = PAW_PBE O 08Apr2002
   POMASS =   16.000; ZVAL   =    6.000    mass and valenz
   ENMAX  =  400.000; ENMIN  =  300.000 eV

 Optimization of the real space projectors (new method)

 maximal supplied QI-value         = 16.25
 optimisation between [QCUT,QGAM] = [ 11.54, 23.24] = [ 37.28,151.24] Ry
 Optimized for a Real-space Cutoff    1.58 Angstroem

   l    n(q)    QCUT    max X(q) W(low)/X(q) W(high)/X(q)  e(spline)
   0     11    11.539    11.817    0.25E-04    0.22E-05    0.26E-07
   0     11    11.539     8.461    0.39E-04    0.49E-05    0.55E-07
   1     11    11.539     3.957    0.21E-05    0.44E-05    0.32E-07
   1     11    11.539     4.314    0.56E-04    0.44E-04    0.19E-06
   2     10    11.539    14.565    0.25E-03    0.21E-04    0.75E-06
   2     10    11.539    14.552    0.23E-03    0.22E-04    0.72E-06
 Optimization of the real space projectors (new method)

[...]

   l    n(q)    QCUT    max X(q) W(low)/X(q) W(high)/X(q)  e(spline)
   1     10    11.539     3.206    0.43E-05    0.46E-05    0.52E-07
   1     10    11.539     4.597    0.39E-04    0.25E-04    0.17E-06
   2     10    11.539    89.000    0.10E-03    0.13E-03    0.24E-06
   2     10    11.539    82.410    0.10E-03    0.13E-03    0.23E-06
   0     11    11.539    36.565    0.42E-04    0.19E-04    0.30E-06
   0     11    11.539    13.729    0.20E-04    0.13E-04    0.22E-06
 Optimization of the real space projectors (new method)

 maximal supplied QI-value         = 24.76
 optimisation between [QCUT,QGAM] = [ 11.64, 23.27] = [ 37.91,151.63] Ry
 Optimized for a Real-space Cutoff    1.14 Angstroem

   l    n(q)    QCUT    max X(q) W(low)/X(q) W(high)/X(q)  e(spline)
   0      8    11.635    20.381    0.10E-03    0.33E-03    0.24E-06
   0      8    11.635    15.268    0.11E-03    0.35E-03    0.26E-06
   1      7    11.635     5.964    0.24E-03    0.31E-03    0.30E-06
   1      7    11.635     5.382    0.22E-03    0.25E-03    0.26E-06
  PAW_PBE Ca_sv 06Sep2000               :
  PAW_PBE V_pv 07Sep2000                :
  PAW_PBE O 08Apr2002                   :

 POSCAR: Ca1 V2 O6
  positions in direct lattice
  velocities in cartesian coordinates

 METAGGA = SCAN     LMAXTAU =  6    LMIXTAU =  F

 ion  position               nearest neighbor table
   1  1.000  1.000  0.000-   5 2.33   4 2.33   6 2.35   7 2.35   6 2.36   7 2.36
   2  0.230  0.466  0.669-   4 1.64   7 1.69   9 1.90   9 1.91   8 1.99
   3  0.770  0.534  0.331-   5 1.64   6 1.69   8 1.90   8 1.91   9 1.99
   4  0.080  0.165  0.722-   2 1.64   1 2.33
   5  0.920  0.835  0.278-   3 1.64   1 2.33
   6  0.645  0.287  0.123-   3 1.69   1 2.35   1 2.36
   7  0.355  0.713  0.877-   2 1.69   1 2.35   1 2.36
   8  0.250  0.497  0.397-   3 1.90   3 1.91   2 1.99
   9  0.750  0.503  0.603-   2 1.90   2 1.91   3 1.99

IMPORTANT INFORMATION: All symmetrisations will be switched off!
NOSYMM: (Re-)initialisation of all symmetry stuff for point group C_1.

                                     Primitive cell

  volume of cell :     126.5949

  direct lattice vectors                    reciprocal lattice vectors
     0.006719086 -3.641912733 -0.005355318    -0.103190211 -0.274773499  0.001449347
    -4.860103164  1.831819893  1.256078042    -0.205360441 -0.000381951  0.002091221
    -0.072672860 -0.010361154 -7.138456102    -0.036057674  0.000138929 -0.139719431

  length of vectors
     3.641922869  5.343584839  7.138833534     0.293514559  0.205371444  0.144297244

  position of ions in fractional coordinates (direct lattice)
     0.999994690  0.999997041  0.000004247
     0.229640843  0.465553801  0.669282487
     0.770365258  0.534450119  0.330718663
     0.080062985  0.164984849  0.722167115
     0.919926006  0.835009221  0.277834142
     0.644659185  0.286707128  0.123015936
     0.355328523  0.713264884  0.876988344
     0.249557041  0.496547484  0.397153539
     0.750465469  0.503485475  0.602835527

  ion indices of the primitive-cell ions
   primitive index   ion index
                 1           1
                 2           2
                 3           3
                 4           4
                 5           5
                 6           6
                 7           7
                 8           8
                 9           9

 KPOINTS: K-points file

Automatic generation of k-mesh.
Space group operators:
 irot       det(A)        alpha          n_x          n_y          n_z        tau_x        tau_y        tau_z
    1     1.000000     0.000000     1.000000     0.000000     0.000000     0.000000     0.000000     0.000000

 Subroutine IBZKPT returns following result:

 Found    158 irreducible k-points:

 Following reciprocal coordinates:
            Coordinates               Weight
  0.000000  0.000000  0.000000      1.000000
  0.111111  0.000000  0.000000      2.000000
  0.222222  0.000000 -0.000000      2.000000
  0.333333  0.000000  0.000000      2.000000
  0.444444  0.000000  0.000000      2.000000
 -0.000000  0.142857 -0.000000      2.000000
  0.111111  0.142857  0.000000      2.000000
  0.222222  0.142857  0.000000      2.000000
  0.333333  0.142857 -0.000000      2.000000
  0.444444  0.142857  0.000000      2.000000
 -0.444444  0.142857  0.000000      2.000000
 -0.333333  0.142857 -0.000000      2.000000
 -0.222222  0.142857  0.000000      2.000000
 -0.111111  0.142857  0.000000      2.000000
  0.000000  0.285714  0.000000      2.000000
  0.111111  0.285714 -0.000000      2.000000
  0.222222  0.285714  0.000000      2.000000
  0.333333  0.285714  0.000000      2.000000
  0.444444  0.285714 -0.000000      2.000000
 -0.444444  0.285714  0.000000      2.000000
 -0.333333  0.285714  0.000000      2.000000
 -0.222222  0.285714 -0.000000      2.000000
 -0.111111  0.285714  0.000000      2.000000
  0.000000  0.428571  0.000000      2.000000
  0.111111  0.428571  0.000000      2.000000
  0.222222  0.428571 -0.000000      2.000000
  0.333333  0.428571  0.000000      2.000000
  0.444444  0.428571  0.000000      2.000000
 -0.444444  0.428571 -0.000000      2.000000
 -0.333333  0.428571  0.000000      2.000000
 -0.222222  0.428571  0.000000      2.000000
 -0.111111  0.428571 -0.000000      2.000000
  0.000000  0.000000  0.200000      2.000000
  0.111111  0.000000  0.200000      2.000000
  0.222222  0.000000  0.200000      2.000000
  0.333333  0.000000  0.200000      2.000000
  0.444444 -0.000000  0.200000      2.000000
 -0.444444 -0.000000  0.200000      2.000000
 -0.333333 -0.000000  0.200000      2.000000
 -0.222222 -0.000000  0.200000      2.000000
 -0.111111 -0.000000  0.200000      2.000000
 -0.000000  0.142857  0.200000      2.000000
  0.111111  0.142857  0.200000      2.000000
  0.222222  0.142857  0.200000      2.000000
  0.333333  0.142857  0.200000      2.000000
  0.444444  0.142857  0.200000      2.000000
 -0.444444  0.142857  0.200000      2.000000
 -0.333333  0.142857  0.200000      2.000000
 -0.222222  0.142857  0.200000      2.000000
 -0.111111  0.142857  0.200000      2.000000
  0.000000  0.285714  0.200000      2.000000
  0.111111  0.285714  0.200000      2.000000
  0.222222  0.285714  0.200000      2.000000
  0.333333  0.285714  0.200000      2.000000
  0.444444  0.285714  0.200000      2.000000
 -0.444444  0.285714  0.200000      2.000000
 -0.333333  0.285714  0.200000      2.000000
 -0.222222  0.285714  0.200000      2.000000
 -0.111111  0.285714  0.200000      2.000000
 -0.000000  0.428571  0.200000      2.000000
[...]
  0.333333 -0.285714  0.400000      2.000000
  0.444444 -0.285714  0.400000      2.000000
 -0.444444 -0.285714  0.400000      2.000000
 -0.333333 -0.285714  0.400000      2.000000
 -0.222222 -0.285714  0.400000      2.000000
 -0.111111 -0.285714  0.400000      2.000000
 -0.000000 -0.142857  0.400000      2.000000
  0.111111 -0.142857  0.400000      2.000000
  0.222222 -0.142857  0.400000      2.000000
  0.333333 -0.142857  0.400000      2.000000
  0.444444 -0.142857  0.400000      2.000000
 -0.444444 -0.142857  0.400000      2.000000
 -0.333333 -0.142857  0.400000      2.000000
 -0.222222 -0.142857  0.400000      2.000000
 -0.111111 -0.142857  0.400000      2.000000

 Following cartesian coordinates:
            Coordinates               Weight
  0.000000  0.000000  0.000000      1.000000
 -0.011466 -0.030530  0.000161      2.000000
 -0.022931 -0.061061  0.000322      2.000000
 -0.034397 -0.091591  0.000483      2.000000
 -0.045862 -0.122122  0.000644      2.000000
 -0.029337 -0.000055  0.000299      2.000000
 -0.040803 -0.030585  0.000460      2.000000
 -0.052268 -0.061115  0.000621      2.000000
 -0.063734 -0.091646  0.000782      2.000000
 -0.075200 -0.122176  0.000943      2.000000
  0.016525  0.122067 -0.000345      2.000000
  0.005060  0.091537 -0.000184      2.000000
 -0.006406  0.061006 -0.000023      2.000000
 -0.017872  0.030476  0.000138      2.000000
 -0.058674 -0.000109  0.000597      2.000000
 -0.070140 -0.030640  0.000759      2.000000
 -0.081606 -0.061170  0.000920      2.000000
 -0.093071 -0.091700  0.001081      2.000000
 -0.104537 -0.122231  0.001242      2.000000
 -0.012812  0.122012 -0.000047      2.000000
 -0.024278  0.091482  0.000114      2.000000
 -0.035743  0.060952  0.000275      2.000000
 -0.047209  0.030421  0.000436      2.000000
 -0.088012 -0.000164  0.000896      2.000000
 -0.099477 -0.030694  0.001057      2.000000
 -0.110943 -0.061224  0.001218      2.000000
 -0.122408 -0.091755  0.001379      2.000000
 -0.133874 -0.122285  0.001540      2.000000
 -0.042149  0.121958  0.000252      2.000000
 -0.053615  0.091427  0.000413      2.000000
 -0.065080  0.060897  0.000574      2.000000
 -0.076546  0.030367  0.000735      2.000000
 -0.007212  0.000028 -0.027944      2.000000
 -0.018677 -0.030503 -0.027783      2.000000
 -0.030143 -0.061033 -0.027622      2.000000
 -0.041608 -0.091563 -0.027461      2.000000
 -0.053074 -0.122094 -0.027300      2.000000
  0.038651  0.122149 -0.028588      2.000000
  0.027185  0.091619 -0.028427      2.000000
  0.015720  0.061089 -0.028266      2.000000
  0.004254  0.030558 -0.028105      2.000000
 -0.036549 -0.000027 -0.027645      2.000000
 -0.048014 -0.030557 -0.027484      2.000000
 -0.059480 -0.061088 -0.027323      2.000000
 -0.070945 -0.091618 -0.027162      2.000000
 -0.082411 -0.122148 -0.027001      2.000000
  0.009314  0.122095 -0.028289      2.000000
 -0.002152  0.091564 -0.028128      2.000000
 -0.013618  0.061034 -0.027967      2.000000
 -0.025083  0.030504 -0.027806      2.000000
 -0.065886 -0.000081 -0.027346      2.000000
 -0.077352 -0.030612 -0.027185      2.000000
[...]
  o =  0.3751  v =  0.0000  0.0000  0.0000  0.0000  0.0000  0.0049 -0.0039  0.1038  0.3423  0.9338      0.0000  0.0000  0.0000  0.0000  0.0000  0.0000  0.0000  0.0000  0.0000  0.0000
  o =  0.4365  v =  0.0000  0.0000  0.0000  0.0000  0.0000 -0.0073  0.0000 -0.1992 -0.9127  0.3567      0.0000  0.0000  0.0000  0.0000  0.0000  0.0000  0.0000  0.0000  0.0000  0.0000
  o =  0.4365  v = -0.0073  0.0000 -0.1992 -0.9127  0.3567  0.0000  0.0000  0.0000  0.0000  0.0000      0.0000  0.0000  0.0000  0.0000  0.0000  0.0000  0.0000  0.0000  0.0000  0.0000

 eigenvalue-minimisations  : 26544
 total energy-change (2. order) : 0.7396160E+03  (-0.3813145E+04)
 number of electron      68.0000013 magnetization       0.0000000
 augmentation part       68.0000013 magnetization       0.0000000

 Free energy of the ion-electron system (eV)
  alpha Z        PSCENC =       277.33243081
  Ewald energy   TEWEN  =     -3775.60510028
  -Hartree energ DENC   =     -2181.95448467
  -exchange      EXHF   =         0.00000000
  -V(xc)+E(xc)   XCENC  =       316.02567881
  PAW double counting   =      7763.07030517    -7768.29969177
  entropy T*S    EENTRO =        -0.00411835
  eigenvalues    EBANDS =      -134.41600886
  atomic energy  EATOM  =      6243.46703749
  Solvation  Ediel_sol  =         0.00000000
  free energy    TOTEN  =       739.61604835 eV

  energy without entropy =      739.62016670  energy(sigma->0) =      739.61810753

[...]

 eigenvalue-minimisations  : 27762
 total energy-change (2. order) :-0.7694546E+03  (-0.7456924E+03)
 number of electron      68.0000013 magnetization       0.0000000
 augmentation part       68.0000013 magnetization       0.0000000

[...]

 eigenvalue-minimisations  : 39678
 total energy-change (2. order) :-0.1490476E+00  (-0.1489178E+00)
 number of electron      68.0000012 magnetization       0.0000000
 augmentation part       15.0953403 magnetization       0.0005267

 Broyden mixing:
  rms(total) = 0.71503E+00    rms(broyden)= 0.71496E+00
  rms(prec ) = 0.76509E+00
  weight for this iteration     100.00

[...]

 eigenvalues of (default mixing * dielectric matrix)
  average eigenvalue GAMMA=   0.6650
  0.6650

[...]

 Broyden mixing:
  rms(total) = 0.20597E-02    rms(broyden)= 0.20594E-02
  rms(prec ) = 0.21250E-02
  weight for this iteration     100.00

 eigenvalues of (default mixing * dielectric matrix)
  average eigenvalue GAMMA=   1.1115
  2.7363  2.7363  1.3203  1.3203  0.8800  0.8800  0.7048  0.7048  0.5870  0.5870
  0.4496  0.4318

[...]

--------------------------------------- Iteration      1(  18)  ---------------------------------------

atom =   2  type =  2  l = 2

[...]

  o =  0.1955  v = -0.4293 -0.9031 -0.0082  0.0043 -0.0022  0.0000  0.0000  0.0000  0.0000  0.0000      0.0000  0.0000  0.0000  0.0000  0.0000  0.0000  0.0000  0.0000  0.0000  0.0000
  o =  0.1956  v =  0.0000  0.0000  0.0000  0.0000  0.0000 -0.4293 -0.9031 -0.0082  0.0043 -0.0022      0.0000  0.0000  0.0000  0.0000  0.0000  0.0000  0.0000  0.0000  0.0000  0.0000
  o =  0.2521  v =  0.9030 -0.4291 -0.0215 -0.0036 -0.0030  0.0000  0.0000  0.0000  0.0000  0.0000      0.0000  0.0000  0.0000  0.0000  0.0000  0.0000  0.0000  0.0000  0.0000  0.0000
  o =  0.2521  v =  0.0000  0.0000  0.0000  0.0000  0.0000  0.9030 -0.4291 -0.0215 -0.0036 -0.0030      0.0000  0.0000  0.0000  0.0000  0.0000  0.0000  0.0000  0.0000  0.0000  0.0000
  o =  0.2871  v = -0.0143  0.0167 -0.9741  0.2234  0.0270  0.0000  0.0000  0.0000  0.0000  0.0000      0.0000  0.0000  0.0000  0.0000  0.0000  0.0000  0.0000  0.0000  0.0000  0.0000
  o =  0.2871  v =  0.0000  0.0000  0.0000  0.0000  0.0000 -0.0143  0.0167 -0.9741  0.2233  0.0270      0.0000  0.0000  0.0000  0.0000  0.0000  0.0000  0.0000  0.0000  0.0000  0.0000
  o =  0.3750  v =  0.0050 -0.0040  0.1040  0.3413  0.9342  0.0000  0.0000  0.0000  0.0000  0.0000      0.0000  0.0000  0.0000  0.0000  0.0000  0.0000  0.0000  0.0000  0.0000  0.0000
  o =  0.3750  v =  0.0000  0.0000  0.0000  0.0000  0.0000  0.0050 -0.0040  0.1040  0.3413  0.9342      0.0000  0.0000  0.0000  0.0000  0.0000  0.0000  0.0000  0.0000  0.0000  0.0000
  o =  0.4365  v = -0.0072 -0.0000 -0.1994 -0.9130  0.3558  0.0000  0.0000  0.0000  0.0000  0.0000      0.0000  0.0000  0.0000  0.0000  0.0000  0.0000  0.0000  0.0000  0.0000  0.0000
  o =  0.4365  v =  0.0000  0.0000  0.0000  0.0000  0.0000 -0.0072 -0.0000 -0.1994 -0.9130  0.3558      0.0000  0.0000  0.0000  0.0000  0.0000  0.0000  0.0000  0.0000  0.0000  0.0000
atom =   3  type =  2  l = 2

 onsite density matrix

[...]

  0.2416 -0.0219  0.0006  0.0014  0.0000
 -0.0219  0.2060 -0.0010  0.0002 -0.0005
  0.0006 -0.0010  0.2940  0.0303 -0.0021
  0.0014  0.0002  0.0303  0.4219 -0.0205
  0.0000 -0.0005 -0.0021 -0.0205  0.3828

 occupancies and eigenvectors

  o =  0.1956  v = -0.4302 -0.9027 -0.0082  0.0043 -0.0022  0.0000  0.0000  0.0000  0.0000  0.0000      0.0000  0.0000  0.0000  0.0000  0.0000  0.0000  0.0000  0.0000  0.0000  0.0000
  o =  0.1956  v =  0.0000  0.0000  0.0000  0.0000  0.0000 -0.4302 -0.9027 -0.0082  0.0043 -0.0022      0.0000  0.0000  0.0000  0.0000  0.0000  0.0000  0.0000  0.0000  0.0000  0.0000
  o =  0.2520  v =  0.9026 -0.4299 -0.0214 -0.0037 -0.0029  0.0000  0.0000  0.0000  0.0000  0.0000      0.0000  0.0000  0.0000  0.0000  0.0000  0.0000  0.0000  0.0000  0.0000  0.0000
  o =  0.2520  v =  0.0000  0.0000  0.0000  0.0000  0.0000  0.9026 -0.4299 -0.0214 -0.0037 -0.0029      0.0000  0.0000  0.0000  0.0000  0.0000  0.0000  0.0000  0.0000  0.0000  0.0000
  o =  0.2871  v = -0.0142  0.0166 -0.9742  0.2231  0.0266  0.0000  0.0000  0.0000  0.0000  0.0000      0.0000  0.0000  0.0000  0.0000  0.0000  0.0000  0.0000  0.0000  0.0000  0.0000
  o =  0.2871  v =  0.0000  0.0000  0.0000  0.0000  0.0000 -0.0142  0.0166 -0.9742  0.2231  0.0266      0.0000  0.0000  0.0000  0.0000  0.0000  0.0000  0.0000  0.0000  0.0000  0.0000
  o =  0.3751  v =  0.0049 -0.0039  0.1037  0.3423  0.9338  0.0000  0.0000  0.0000  0.0000  0.0000      0.0000  0.0000  0.0000  0.0000  0.0000  0.0000  0.0000  0.0000  0.0000  0.0000
  o =  0.3751  v =  0.0000  0.0000  0.0000  0.0000  0.0000  0.0049 -0.0039  0.1037  0.3423  0.9338      0.0000  0.0000  0.0000  0.0000  0.0000  0.0000  0.0000  0.0000  0.0000  0.0000
  o =  0.4365  v = -0.0073  0.0000 -0.1992 -0.9127  0.3567  0.0000  0.0000  0.0000  0.0000  0.0000      0.0000  0.0000  0.0000  0.0000  0.0000  0.0000  0.0000  0.0000  0.0000  0.0000
  o =  0.4365  v =  0.0000  0.0000  0.0000  0.0000  0.0000 -0.0073  0.0000 -0.1992 -0.9127  0.3567      0.0000  0.0000  0.0000  0.0000  0.0000  0.0000  0.0000  0.0000  0.0000  0.0000

 eigenvalue-minimisations  : 16962
 total energy-change (2. order) : 0.8202112E-05  (-0.2987854E-06)
 number of electron      68.0000013 magnetization       0.0000000
 augmentation part       15.5447243 magnetization       0.0000021

 Free energy of the ion-electron system (eV)
  alpha Z        PSCENC =       277.33243081
  Ewald energy   TEWEN  =     -3775.60510028
  -Hartree energ DENC   =     -2181.95009566
  -exchange      EXHF   =         0.00000000
  -V(xc)+E(xc)   XCENC  =       325.94787679
  PAW double counting   =      7762.76617848    -7767.99671434
  entropy T*S    EENTRO =        -0.00000000
  eigenvalues    EBANDS =      -988.89179712
  atomic energy  EATOM  =      6243.46703749
  Solvation  Ediel_sol  =         0.00000000
  free energy    TOTEN  =      -104.93018382 eV

  energy without entropy =     -104.93018382  energy(sigma->0) =     -104.93018382

 average (electrostatic) potential at core
  the test charge radii are     1.1137  0.9339  0.7215
  (the norm of the test charge is              1.0000)
       1 -50.4247       2 -58.7507       3 -58.7500       4 -77.7532       5 -77.7532
       6 -77.5973       7 -77.5980       8 -77.9687       9 -77.9687

 E-fermi :  -0.3505     XC(G=0): -10.1166     alpha+bet : -9.0661

[...]

 k-point     1 :       0.0000    0.0000    0.0000
  band No.  band energies     occupation
      1     -40.1044      1.00000
      2     -40.1006      1.00000
      3     -40.0863      1.00000
      4     -39.9953      1.00000
      5     -39.9643      1.00000
      6     -39.9254      1.00000
      7     -39.3935      1.00000
      8     -19.9027      1.00000
      9     -19.7643      1.00000
     10     -19.4532      1.00000
     11     -19.2659      1.00000
     12     -18.0003      1.00000
     13     -17.6781      1.00000
     14     -17.3453      1.00000
     15     -17.1820      1.00000
     16     -16.9689      1.00000
     17      -5.1770      1.00000
     18      -4.9442      1.00000
     19      -3.9370      1.00000
     20      -3.7608      1.00000
     21      -3.5180      1.00000
     22      -3.0480      1.00000
     23      -2.8777      1.00000
     24      -2.7897      1.00000
     25      -2.6878      1.00000
     26      -2.6869      1.00000
     27      -2.5807      1.00000
     28      -1.9388      1.00000
     29      -1.8880      1.00000
     30      -1.7166      1.00000
     31      -1.5675      1.00000
     32      -1.5450      1.00000
     33      -0.9001      1.00000
     34      -0.8785      1.00000
     35       2.8033      0.00000
     36       2.8471      0.00000
     37       3.6579      0.00000
     38       3.7986      0.00000
     39       4.0689      0.00000
     40       4.1442      0.00000
     41       4.5532      0.00000
     42       4.9075      0.00000

[...]

 spin component 2

[...]

 k-point   158 :      -0.1111   -0.1429    0.4000
  band No.  band energies     occupation
      1     -40.1034      1.00000
      2     -40.1002      1.00000
      3     -40.0858      1.00000
      4     -40.0046      1.00000
      5     -39.9631      1.00000
      6     -39.9303      1.00000
      7     -39.3914      1.00000
      8     -19.8824      1.00000
      9     -19.7772      1.00000
     10     -19.5513      1.00000
     11     -19.1275      1.00000
     12     -17.9890      1.00000
     13     -17.6004      1.00000
     14     -17.3625      1.00000
     15     -17.1091      1.00000
     16     -17.0633      1.00000
     17      -5.3570      1.00000
     18      -4.8765      1.00000
     19      -4.0999      1.00000
     20      -3.7464      1.00000
     21      -3.4744      1.00000
     22      -3.3380      1.00000
     23      -3.1160      1.00000
     24      -2.8007      1.00000
     25      -2.7105      1.00000
     26      -2.4840      1.00000
     27      -2.1832      1.00000
     28      -2.0735      1.00000
     29      -1.8814      1.00000
     30      -1.7987      1.00000
     31      -1.6299      1.00000
     32      -1.4423      1.00000
     33      -0.8250      1.00000
     34      -0.8143      1.00000
     35       2.7840      0.00000
     36       2.9133      0.00000
     37       3.3721      0.00000
     38       3.4101      0.00000
     39       3.9417      0.00000
     40       4.2872      0.00000
     41       4.7406      0.00000
     42       4.9939      0.00000

 soft charge-density along one line, spin component           1
         0         1         2         3         4         5         6         7         8         9
 total charge-density along one line

 soft charge-density along one line, spin component           2
         0         1         2         3         4         5         6         7         8         9
 total charge-density along one line

------------------------ aborting loop because EDIFF is reached ----------------------------------------

 total charge

# of ion       s       p       d       tot
    1        2.022   5.871   0.214   8.107
    2        0.427   6.454   3.047   9.928
    3        0.427   6.454   3.047   9.928
    4        1.604   3.422   0.000   5.026
    5        1.604   3.422   0.000   5.026
    6        1.592   3.469   0.000   5.061
    7        1.592   3.469   0.000   5.061
    8        1.578   3.532   0.000   5.110
    9        1.578   3.532   0.000   5.110
tot         12.426  39.625   6.308  58.359

 magnetization (x)

[...]

  FORCE on cell =-STRESS in cart. coord.  units (eV):
  Direction    XX          YY          ZZ          XY          YZ          ZX
  Alpha Z   277.33243   277.33243   277.33243
  Ewald   -1777.78868  -917.63475 -1080.18767    -6.93213     6.20646    79.86364
  Hartree   323.57690  1007.03767   851.36165    -3.96541     2.64582    64.87544
  E(xc)    -366.24671  -366.46341  -365.95362    -0.00072     0.00141    -0.01294
  Local     489.62842 -1048.27215  -735.81424    10.76726    -8.75924  -144.25917
  n-local  -309.07280  -301.31511  -306.45504    -0.01479    -0.01214     1.38032
  augment   152.60510   149.28585   151.41385    -0.01592    -0.02730    -0.66205
  Kinetic  1209.96138  1200.19521  1208.35510     0.15715    -0.04716    -1.20138
  Fock        0.00000     0.00000     0.00000     0.00000     0.00000     0.00000
  Total      -0.00396     0.16574     0.05247    -0.00456     0.00785    -0.01612
  in kB      -0.05009     2.09758     0.66407    -0.05775     0.09929    -0.20406

 VOLUME and BASIS-vectors are now :
  energy-cutoff  :      520.00
  volume of cell :      126.59
      direct lattice vectors                 reciprocal lattice vectors
     0.006719086 -3.641912733 -0.005355318    -0.103190211 -0.274773499  0.001449347
    -4.860103164  1.831819893  1.256078042    -0.205360441 -0.000381951  0.002091221
    -0.072672860 -0.010361154 -7.138456102    -0.036057674  0.000138929 -0.139719431

  length of vectors
     3.641922869  5.343584839  7.138833534     0.293514559  0.205371444  0.144297244

 FORCES acting on ions
    electron-ion (+dipol)            ewald-force                    non-local-force                 convergence-correction
   -.280E-02 0.474E-02 -.186E-01   0.162E-02 -.461E-02 0.181E-01   0.106E-02 -.183E-03 0.643E-03   -.494E-05 0.289E-05 -.352E-04
   -.323E+02 -.317E+00 0.755E+02   0.308E+02 0.310E+00 -.738E+02   0.161E+01 0.339E-01 -.202E+01   -.468E-03 -.359E-04 0.391E-03
   0.322E+02 0.327E+00 -.755E+02   -.307E+02 -.320E+00 0.739E+02   -.162E+01 -.340E-01 0.202E+01   0.422E-03 0.278E-04 -.328E-03
   -.239E+03 0.401E+00 0.833E+02   0.262E+03 -.478E+00 -.898E+02   -.225E+02 0.878E-01 0.652E+01   0.977E-04 -.118E-06 -.116E-03
   0.239E+03 -.406E+00 -.833E+02   -.262E+03 0.483E+00 0.898E+02   0.225E+02 -.888E-01 -.653E+01   -.128E-03 0.119E-05 0.149E-03
   -.131E+03 -.863E+00 -.182E+03   0.142E+03 0.953E+00 0.197E+03   -.112E+02 -.859E-01 -.149E+02   0.194E-03 -.287E-05 0.833E-04
   0.131E+03 0.858E+00 0.182E+03   -.142E+03 -.947E+00 -.197E+03   0.112E+02 0.851E-01 0.149E+02   -.191E-03 0.105E-05 -.910E-04
   -.630E+01 0.212E+01 -.946E+02   0.844E+01 -.248E+01 0.981E+02   -.215E+01 0.381E+00 -.343E+01   0.558E-04 -.196E-05 0.156E-03
   0.633E+01 -.212E+01 0.947E+02   -.847E+01 0.249E+01 -.981E+02   0.215E+01 -.381E+00 0.343E+01   -.634E-04 0.333E-05 -.129E-03
   0.520E-02 0.202E-02 -.601E-02   -.373E-13 0.488E-14 -.711E-13   -.471E-02 -.244E-02 0.567E-02   -.864E-04 -.456E-05 0.801E-04

 POSITION                                       TOTAL-FORCE (eV/Angst)
     -4.85337     -1.81008      1.25069        -0.000167      0.000003      0.000099
     -2.30974      0.00954     -4.19410         0.003287      0.010374     -0.008545
     -2.61634     -1.83001     -1.69364        -0.002194     -0.010276      0.011293
     -0.85379      0.00316     -4.94835         0.006606      0.011347      0.006631
     -4.07224     -1.82358     -0.93940        -0.005977     -0.011402     -0.007215
     -1.39803     -1.82387     -0.52147         0.021269      0.004195     -0.000629
     -3.52789      0.00341     -5.36633        -0.022796     -0.004456     -0.000834
     -2.44046     -0.00339     -2.21270        -0.016132      0.017468      0.012573
     -2.48576     -1.81708     -3.67492         0.016104     -0.017251     -0.013372
    total drift:                                0.000403     -0.000424     -0.000255

  FREE ENERGIE OF THE ION-ELECTRON SYSTEM (eV)
  free  energy   TOTEN  =      -104.93018382 eV

  energy  without entropy=     -104.93018382  energy(sigma->0) =     -104.93018382

 reached required accuracy - stopping structural energy minimisation

 total charge

[...]

 magnetization (x)

# of ion       s       p       d       tot
    1       -0.000  -0.000   0.000  -0.000
    2        0.000   0.000   0.000   0.000
    3        0.000   0.000   0.000   0.000
    4        0.000  -0.000   0.000  -0.000
    5        0.000   0.000   0.000   0.000
    6        0.000   0.000   0.000   0.000
    7        0.000  -0.000   0.000  -0.000
    8       -0.000  -0.000   0.000  -0.000
    9       -0.000  -0.000   0.000  -0.000
tot          0.000  -0.000   0.000   0.000