 vasp.6.1.2 22Jul20 (build Dec 05 2020 14:50:36) complex

 executed on         CrayXC-Intel date 2021.06.14  02:55:08

 INCAR:
 POTCAR:    PAW_PBE Ca_sv 06Sep2000
 POTCAR:    PAW_PBE V_pv 07Sep2000
 POTCAR:    PAW_PBE O 08Apr2002
 POTCAR:    PAW_PBE Ca_sv 06Sep2000
   VRHFIN =Ca: 3s3p4s

   TITEL  = PAW_PBE Ca_sv 06Sep2000
   POMASS =   40.078; ZVAL   =   10.000    mass and valenz
   ENMAX  =  266.622; ENMIN  =  199.967 eV

 POTCAR:    PAW_PBE V_pv 07Sep2000
   VRHFIN =V: p6 d4 s1

   TITEL  = PAW_PBE V_pv 07Sep2000
   POMASS =   50.941; ZVAL   =   11.000    mass and valenz
   ENMAX  =  263.673; ENMIN  =  197.755 eV

 POTCAR:    PAW_PBE O 08Apr2002
   VRHFIN =O: s2p4

   TITEL  = PAW_PBE O 08Apr2002
   POMASS =   16.000; ZVAL   =    6.000    mass and valenz
   ENMAX  =  400.000; ENMIN  =  300.000 eV

 Optimization of the real space projectors (new method)

 maximal supplied QI-value         = 16.25
 optimisation between [QCUT,QGAM] = [ 11.54, 23.24] = [ 37.28,151.24] Ry
 Optimized for a Real-space Cutoff    1.58 Angstroem

   l    n(q)    QCUT    max X(q) W(low)/X(q) W(high)/X(q)  e(spline)
   0     11    11.539    11.817    0.25E-04    0.22E-05    0.26E-07
   0     11    11.539     8.461    0.39E-04    0.49E-05    0.55E-07
   1     11    11.539     3.957    0.21E-05    0.44E-05    0.32E-07
   1     11    11.539     4.314    0.56E-04    0.44E-04    0.19E-06
   2     10    11.539    14.565    0.25E-03    0.21E-04    0.75E-06
   2     10    11.539    14.552    0.23E-03    0.22E-04    0.72E-06
 Optimization of the real space projectors (new method)

[...]

   l    n(q)    QCUT    max X(q) W(low)/X(q) W(high)/X(q)  e(spline)
   1     10    11.539     3.206    0.43E-05    0.46E-05    0.52E-07
   1     10    11.539     4.597    0.39E-04    0.25E-04    0.17E-06
   2     10    11.539    89.000    0.10E-03    0.13E-03    0.24E-06
   2     10    11.539    82.410    0.10E-03    0.13E-03    0.23E-06
   0     11    11.539    36.565    0.42E-04    0.19E-04    0.30E-06
   0     11    11.539    13.729    0.20E-04    0.13E-04    0.22E-06
 Optimization of the real space projectors (new method)

 maximal supplied QI-value         = 24.76
 optimisation between [QCUT,QGAM] = [ 11.64, 23.27] = [ 37.91,151.63] Ry
 Optimized for a Real-space Cutoff    1.14 Angstroem

   l    n(q)    QCUT    max X(q) W(low)/X(q) W(high)/X(q)  e(spline)
   0      8    11.635    20.381    0.10E-03    0.33E-03    0.24E-06
   0      8    11.635    15.268    0.11E-03    0.35E-03    0.26E-06
   1      7    11.635     5.964    0.24E-03    0.31E-03    0.30E-06
   1      7    11.635     5.382    0.22E-03    0.25E-03    0.26E-06
  PAW_PBE Ca_sv 06Sep2000               :
  PAW_PBE V_pv 07Sep2000                :
  PAW_PBE O 08Apr2002                   :

 POSCAR: Ca4 V8 O16
  positions in direct lattice
  velocities in cartesian coordinates

 METAGGA = SCAN     LMAXTAU =  6    LMIXTAU =  F

 ion  position               nearest neighbor table
   1  0.254  0.846  0.239-  27 2.36  19 2.38  19 2.38  27 2.38  15 2.49  15 2.53  22 2.54  21 2.55
                             6 2.98   5 2.99
   2  0.753  0.654  0.261-  28 2.36  20 2.38  20 2.38  28 2.38  16 2.49  16 2.52  21 2.54  22 2.54
                             5 2.98   6 2.99
   3  0.747  0.154  0.758-  25 2.37  17 2.37  25 2.38  17 2.38  13 2.50  13 2.51  23 2.54  24 2.54
                             8 2.98   7 2.99
   4  0.247  0.346  0.741-  26 2.37  18 2.37  26 2.38  18 2.38  14 2.50  14 2.51  24 2.54  23 2.54
                             7 2.98   8 2.99
   5  0.932  0.887  0.238-  25 1.98  21 1.99  16 2.02  27 2.08  27 2.09  16 2.13   2 2.98   1 2.99

   6  0.432  0.613  0.263-  26 1.99  22 1.99  15 2.02  28 2.08  28 2.09  15 2.13   1 2.98   2 2.99

[...]

   9  0.921  0.395  0.255-  23 2.01  18 2.01  23 2.02  13 2.03  20 2.07  20 2.10
  10  0.421  0.105  0.245-  24 2.01  17 2.01  24 2.03  14 2.03  19 2.07  19 2.10
  11  0.079  0.605  0.745-  21 2.01  20 2.01  21 2.02  15 2.03  18 2.07  18 2.10
  12  0.579  0.895  0.755-  19 2.01  22 2.01  22 2.02  16 2.04  17 2.07  17 2.10
  13  0.710  0.338  0.263-   8 2.03   9 2.03   8 2.12   3 2.50   3 2.51
  14  0.210  0.162  0.237-   7 2.03  10 2.03   7 2.12   4 2.50   4 2.51
  15  0.290  0.663  0.741-   6 2.02  11 2.03   6 2.13   1 2.49   1 2.53
  16  0.790  0.837  0.759-   5 2.02  12 2.04   5 2.13   2 2.49   2 2.52
  17  0.619  0.024  0.255-  10 2.01  12 2.07  12 2.10   3 2.37   3 2.38
  18  0.118  0.476  0.245-   9 2.01  11 2.07  11 2.10   4 2.37   4 2.38
  19  0.382  0.977  0.745-  12 2.01  10 2.07  10 2.10   1 2.38   1 2.38
  20  0.881  0.523  0.755-  11 2.01   9 2.07   9 2.10   2 2.38   2 2.38
  21  0.020  0.717  0.252-   5 1.99  11 2.01  11 2.02   2 2.54   1 2.55
  22  0.520  0.783  0.248-   6 1.99  12 2.01  12 2.02   1 2.54   2 2.54
  23  0.979  0.282  0.747-   7 1.99   9 2.01   9 2.02   3 2.54   4 2.54
  24  0.479  0.218  0.753-   8 1.99  10 2.01  10 2.03   4 2.54   3 2.54
  25  0.920  0.073  0.257-   5 1.98   7 2.08   7 2.10   3 2.37   3 2.38
  26  0.420  0.427  0.243-   6 1.99   8 2.08   8 2.10   4 2.37   4 2.38
  27  0.080  0.926  0.737-   7 1.98   5 2.08   5 2.09   1 2.36   1 2.38
  28  0.580  0.574  0.763-   8 1.98   6 2.08   6 2.09   2 2.36   2 2.38

IMPORTANT INFORMATION: All symmetrisations will be switched off!
NOSYMM: (Re-)initialisation of all symmetry stuff for point group C_1.

                                     Primitive cell

  volume of cell :     299.4072

  direct lattice vectors                    reciprocal lattice vectors
     9.181749402  0.000396613  0.000160374     0.108911707 -0.000001212 -0.000004787
     0.000116345 10.655379788 -0.050125328    -0.000004065  0.093852322  0.000641179
     0.000134289 -0.020908176  3.060425383    -0.000005774  0.001537165  0.326762464

  length of vectors
     9.181749412 10.655497688  3.060496805     0.108911707  0.093854513  0.326766080

  position of ions in fractional coordinates (direct lattice)
     0.253550978  0.846405338  0.239310556
     0.753471034  0.653638115  0.260677481
     0.746558398  0.153736088  0.758351119
     0.246520600  0.346240357  0.741352409
     0.931644161  0.887248666  0.238198846
     0.431530965  0.612804126  0.262545315
     0.068493281  0.112177231  0.755290274
     0.568462476  0.387744222  0.744574972
     0.921071251  0.395025861  0.254897902
     0.421070815  0.104929460  0.244576470
     0.079053238  0.604803871  0.744699824
     0.578991122  0.895274272  0.755413529
     0.709701498  0.337678420  0.262971183
     0.209719833  0.162337944  0.236737382
     0.290187339  0.662502430  0.741175904
     0.790232800  0.837487196  0.759476062
     0.618530015  0.023569196  0.255123576
     0.118491078  0.476466197  0.244791516
     0.381557798  0.976584817  0.744867822
     0.881489558  0.523437408  0.754774579
     0.020393160  0.717240554  0.251726332
     0.520390964  0.782675130  0.248225696
     0.979483302  0.282493148  0.747272400
     0.479488032  0.217571932  0.752586962
     0.920452240  0.073216955  0.257124465
     0.420374947  0.426748258  0.242906613
     0.079572037  0.926351858  0.737454869
     0.579517081  0.573610952  0.762895942

  ion indices of the primitive-cell ions
   primitive index   ion index
                 1           1
                 2           2
                 3           3
                 4           4
                 5           5
                 6           6
                 7           7
                 8           8
                 9           9
                10          10
                11          11
                12          12
                13          13
                14          14
                15          15
                16          16
                17          17
                18          18
                19          19
                20          20
                21          21
                22          22
                23          23
                24          24
                25          25
                26          26
                27          27
                28          28

 KPOINTS: K-points file

Automatic generation of k-mesh.
Space group operators:
 irot       det(A)        alpha          n_x          n_y          n_z        tau_x        tau_y        tau_z
    1     1.000000     0.000000     1.000000     0.000000     0.000000     0.000000     0.000000     0.000000

 Subroutine IBZKPT returns following result:

 Found     67 irreducible k-points:

 Following reciprocal coordinates:
            Coordinates               Weight
  0.000000  0.000000  0.000000      1.000000
  0.250000  0.000000 -0.000000      2.000000
  0.500000  0.000000 -0.000000      1.000000
 -0.000000  0.333333  0.000000      2.000000
  0.250000  0.333333  0.000000      2.000000
  0.500000  0.333333 -0.000000      2.000000
 -0.250000  0.333333  0.000000      2.000000
  0.000000  0.000000  0.090909      2.000000
  0.250000 -0.000000  0.090909      2.000000
  0.500000  0.000000  0.090909      2.000000
 -0.250000  0.000000  0.090909      2.000000
 -0.000000  0.333333  0.090909      2.000000
  0.250000  0.333333  0.090909      2.000000
  0.500000  0.333333  0.090909      2.000000
 -0.250000  0.333333  0.090909      2.000000
  0.000000 -0.333333  0.090909      2.000000
  0.250000 -0.333333  0.090909      2.000000
  0.500000 -0.333333  0.090909      2.000000
 -0.250000 -0.333333  0.090909      2.000000
  0.000000  0.000000  0.181818      2.000000
  0.250000  0.000000  0.181818      2.000000
  0.500000 -0.000000  0.181818      2.000000
 -0.250000  0.000000  0.181818      2.000000
  0.000000  0.333333  0.181818      2.000000
  0.250000  0.333333  0.181818      2.000000
  0.500000  0.333333  0.181818      2.000000
 -0.250000  0.333333  0.181818      2.000000
  0.000000 -0.333333  0.181818      2.000000
  0.250000 -0.333333  0.181818      2.000000
  0.500000 -0.333333  0.181818      2.000000
 -0.250000 -0.333333  0.181818      2.000000
 -0.000000  0.000000  0.272727      2.000000
  0.250000  0.000000  0.272727      2.000000
  0.500000 -0.000000  0.272727      2.000000
 -0.250000 -0.000000  0.272727      2.000000
 -0.000000  0.333333  0.272727      2.000000
  0.250000  0.333333  0.272727      2.000000
  0.500000  0.333333  0.272727      2.000000
 -0.250000  0.333333  0.272727      2.000000
  0.000000 -0.333333  0.272727      2.000000
  0.250000 -0.333333  0.272727      2.000000
  0.500000 -0.333333  0.272727      2.000000
 -0.250000 -0.333333  0.272727      2.000000
  0.000000  0.000000  0.363636      2.000000
  0.250000  0.000000  0.363636      2.000000
  0.500000  0.000000  0.363636      2.000000
 -0.250000  0.000000  0.363636      2.000000
  0.000000  0.333333  0.363636      2.000000
  0.250000  0.333333  0.363636      2.000000
  0.500000  0.333333  0.363636      2.000000
 -0.250000  0.333333  0.363636      2.000000
  0.000000 -0.333333  0.363636      2.000000
  0.250000 -0.333333  0.363636      2.000000
  0.500000 -0.333333  0.363636      2.000000
 -0.250000 -0.333333  0.363636      2.000000
  0.000000 -0.000000  0.454545      2.000000
  0.250000  0.000000  0.454545      2.000000
  0.500000  0.000000  0.454545      2.000000
 -0.250000 -0.000000  0.454545      2.000000
[...]

[...]

  0.1033  0.0004  0.0448 -0.0002 -0.0447
  0.0004  0.1648  0.0024  0.0426 -0.0014
  0.0448  0.0024  0.0878 -0.0010 -0.0517
 -0.0002  0.0426 -0.0010  0.0654  0.0024
 -0.0447 -0.0014 -0.0517  0.0024  0.1077

 occupancies and eigenvectors

  o =  0.0434  v =  0.0000  0.0000  0.0000  0.0000  0.0000 -0.2562 -0.0095  0.8324 -0.0020  0.4913      0.0000  0.0000  0.0000  0.0000  0.0000  0.0000  0.0000  0.0000  0.0000  0.0000
  o =  0.0494  v =  0.0000  0.0000  0.0000  0.0000  0.0000  0.0967  0.3437 -0.0263 -0.9286  0.0977      0.0000  0.0000  0.0000  0.0000  0.0000  0.0000  0.0000  0.0000  0.0000  0.0000
  o =  0.0614  v =  0.0000  0.0000  0.0000  0.0000  0.0000 -0.7745  0.0463  0.1193 -0.1306 -0.6056      0.0000  0.0000  0.0000  0.0000  0.0000  0.0000  0.0000  0.0000  0.0000  0.0000
  o =  0.1029  v =  0.7861  0.0278 -0.2813  0.0328  0.5487  0.0000  0.0000  0.0000  0.0000  0.0000      0.0000  0.0000  0.0000  0.0000  0.0000  0.0000  0.0000  0.0000  0.0000  0.0000
  o =  0.1804  v =  0.0000  0.0000  0.0000  0.0000  0.0000 -0.0651  0.9317 -0.0498  0.3469  0.0698      0.0000  0.0000  0.0000  0.0000  0.0000  0.0000  0.0000  0.0000  0.0000  0.0000
  o =  0.1944  v =  0.0000  0.0000  0.0000  0.0000  0.0000 -0.5666 -0.1074 -0.5383 -0.0189  0.6143      0.0000  0.0000  0.0000  0.0000  0.0000  0.0000  0.0000  0.0000  0.0000  0.0000
  o =  0.2153  v =  0.0423 -0.9646  0.0010 -0.2605  0.0044  0.0000  0.0000  0.0000  0.0000  0.0000      0.0000  0.0000  0.0000  0.0000  0.0000  0.0000  0.0000  0.0000  0.0000  0.0000
  o =  0.2419  v =  0.5777  0.0322  0.6469 -0.0312 -0.4957  0.0000  0.0000  0.0000  0.0000  0.0000      0.0000  0.0000  0.0000  0.0000  0.0000  0.0000  0.0000  0.0000  0.0000  0.0000
  o =  0.8976  v = -0.1272  0.2094  0.3833 -0.7878  0.4152  0.0000  0.0000  0.0000  0.0000  0.0000      0.0000  0.0000  0.0000  0.0000  0.0000  0.0000  0.0000  0.0000  0.0000  0.0000
  o =  0.9030  v =  0.1742  0.1548 -0.5962 -0.5563 -0.5299  0.0000  0.0000  0.0000  0.0000  0.0000      0.0000  0.0000  0.0000  0.0000  0.0000  0.0000  0.0000  0.0000  0.0000  0.0000

 eigenvalue-minimisations  : 24168
 total energy-change (2. order) : 0.4702302E-05  (-0.6301532E-06)
 number of electron     223.9999975 magnetization      15.9999977
 augmentation part       58.4714165 magnetization       9.1904100

 Free energy of the ion-electron system (eV)
  alpha Z        PSCENC =      1404.62822132
  Ewald energy   TEWEN  =    -16993.96809509
  -Hartree energ DENC   =     -4685.55341163
  -exchange      EXHF   =         0.00000000
  -V(xc)+E(xc)   XCENC  =      1044.68275997
  PAW double counting   =     22304.28710021   -22283.56216776
  entropy T*S    EENTRO =        -0.00000000
  eigenvalues    EBANDS =     -2659.46473678
  atomic energy  EATOM  =     21515.00425776
  Solvation  Ediel_sol  =         0.00000000
  free energy    TOTEN  =      -353.94607200 eV

  energy without entropy =     -353.94607200  energy(sigma->0) =     -353.94607200

 average (electrostatic) potential at core
  the test charge radii are     1.1137  0.9339  0.7215
  (the norm of the test charge is              1.0000)
       1 -47.3582       2 -47.3656       3 -47.3611       4 -47.3637       5 -52.5663
       6 -52.5668       7 -52.5659       8 -52.5682       9 -52.6794      10 -52.6745
      11 -52.6762      12 -52.6737      13 -74.0339      14 -74.0322      15 -74.0374
      16 -74.0392      17 -73.9054      18 -73.9108      19 -73.9015      20 -73.9123
      21 -74.0017      22 -73.9991      23 -73.9973      24 -73.9996      25 -73.8314
      26 -73.8357      27 -73.8378      28 -73.8423

 E-fermi :   5.4193     XC(G=0): -12.4125     alpha+bet :-13.3149

[...]

 spin component 2

[...]

 k-point    67 :      -0.2500   -0.3333    0.4545
  band No.  band energies     occupation
      1     -36.3431      1.00000
      2     -36.3412      1.00000
      3     -36.3387      1.00000
      4     -36.3359      1.00000
      5     -33.5784      1.00000
      6     -33.5745      1.00000
      7     -33.5735      1.00000
      8     -33.5699      1.00000
      9     -33.4246      1.00000
     10     -33.4232      1.00000
     11     -33.3730      1.00000
     12     -33.3715      1.00000
     13     -33.3502      1.00000
     14     -33.3493      1.00000
     15     -33.3389      1.00000
     16     -33.3373      1.00000
     17     -33.1637      1.00000
     18     -33.1598      1.00000
     19     -33.1401      1.00000
     20     -33.1363      1.00000
     21     -32.7223      1.00000
     22     -32.7191      1.00000
     23     -32.7187      1.00000
     24     -32.7154      1.00000
     25     -32.3330      1.00000
     26     -32.3316      1.00000
     27     -32.2849      1.00000
     28     -32.2842      1.00000
     29     -17.3075      1.00000
     30     -17.3030      1.00000
     31     -17.2987      1.00000
     32     -17.2955      1.00000
     33     -16.6479      1.00000
     34     -16.6445      1.00000
     35     -16.5907      1.00000
     36     -16.5855      1.00000
     37     -16.5506      1.00000
     38     -16.5461      1.00000
     39     -16.5239      1.00000
     40     -16.5230      1.00000
     41     -14.4109      1.00000
     42     -14.4024      1.00000
     43     -14.3650      1.00000
     44     -14.3586      1.00000
     45     -14.3410      1.00000
     46     -14.3181      1.00000
     47     -14.2507      1.00000
     48     -14.2153      1.00000
     49     -14.1817      1.00000
     50     -14.1284      1.00000
     51     -14.1231      1.00000
     52     -14.1128      1.00000
     53     -13.9347      1.00000
     54     -13.8997      1.00000
     55     -13.8904      1.00000
     56     -13.8829      1.00000
     57      -1.2827      1.00000
     58      -1.1963      1.00000
     59      -1.1502      1.00000
     60      -1.1289      1.00000
[...]
    130       9.6081      0.00000
    131       9.6965      0.00000
    132       9.7406      0.00000
    133       9.7863      0.00000
    134       9.8526      0.00000
    135       9.8973      0.00000
    136       9.9243      0.00000
    137      10.2417      0.00000
    138      10.2537      0.00000
    139      10.3271      0.00000
    140      10.3547      0.00000
    141      10.3908      0.00000
    142      10.4204      0.00000
    143      10.4885      0.00000
    144      10.5185      0.00000

[...]

 soft charge-density along one line, spin component           2
         0         1         2         3         4         5         6         7         8         9
 total charge-density along one line

------------------------ aborting loop because EDIFF is reached ----------------------------------------

[...]

  FORCE on cell =-STRESS in cart. coord.  units (eV):
  Direction    XX          YY          ZZ          XY          YZ          ZX
  Alpha Z  1404.62822  1404.62822  1404.62822
  Ewald   -6063.74140 -5677.76523 -5252.52158    -0.20908    26.35974     0.74148
  Hartree  1261.34080  1543.53800  1880.67104    -0.10418     8.42419     0.35834
  E(xc)   -1229.19368 -1229.62258 -1230.08697     0.00074     0.17174     0.00103
  Local    1387.94411   728.59295   -84.65447     0.30745   -29.42142    -1.08883
  n-local -1078.89644 -1074.46205 -1099.49732    -0.00061     2.07963     0.00875
  augment   530.24950   529.32904   560.38134     0.00093    -3.39003     0.00068
  Kinetic  3787.20208  3775.28288  3820.63713     0.00082    -4.28388    -0.01327
  Fock        0.00000     0.00000     0.00000     0.00000     0.00000     0.00000
  Total      -0.46681    -0.47877    -0.44262    -0.00394    -0.06004     0.00818
  in kB      -2.49469    -2.55859    -2.36541    -0.02108    -0.32085     0.04373

 VOLUME and BASIS-vectors are now :
  energy-cutoff  :      520.00
  volume of cell :      299.80
      direct lattice vectors                 reciprocal lattice vectors
     9.185517042  0.000264447 -0.000186188     0.108867034  0.000000440 -0.000000763
    -0.000043476 10.659494669 -0.052968265    -0.000002687  0.093816461  0.000680819
     0.000021555 -0.022220916  3.062029989     0.000006573  0.001622876  0.326592511

  length of vectors
     9.185517048 10.659626271  3.062110616     0.108867034  0.093818931  0.326596543

 FORCES acting on ions
    electron-ion (+dipol)            ewald-force                    non-local-force                 convergence-correction
   0.733E+00 0.123E+02 0.100E+01   -.110E+01 -.112E+02 -.959E+00   0.361E+00 -.107E+01 -.379E-01   -.149E-02 -.410E-02 -.178E-04
   0.103E+01 -.123E+02 -.104E+01   -.140E+01 0.113E+02 0.987E+00   0.368E+00 0.106E+01 0.448E-01   -.686E-03 -.589E-02 0.649E-03
   -.652E+00 -.128E+02 -.134E+01   0.103E+01 0.118E+02 0.126E+01   -.373E+00 0.107E+01 0.867E-01   0.769E-03 0.642E-02 -.285E-04
   -.540E+00 0.130E+02 0.130E+01   0.910E+00 -.119E+02 -.123E+01   -.370E+00 -.107E+01 -.823E-01   0.542E-03 0.346E-02 0.531E-03
   0.851E+02 0.294E+02 -.609E+01   -.841E+02 -.291E+02 0.593E+01   -.933E+00 -.299E+00 0.142E+00   -.503E-03 -.306E-02 -.838E-03
   0.849E+02 -.300E+02 0.616E+01   -.839E+02 0.297E+02 -.600E+01   -.932E+00 0.301E+00 -.140E+00   0.219E-02 -.693E-02 -.433E-03
   -.846E+02 -.320E+02 0.520E+01   0.835E+02 0.317E+02 -.505E+01   0.102E+01 0.281E+00 -.122E+00   -.127E-02 0.474E-02 0.366E-03
   -.848E+02 0.323E+02 -.513E+01   0.837E+02 -.320E+02 0.499E+01   0.102E+01 -.284E+00 0.118E+00   0.167E-02 0.357E-02 -.828E-03
   0.766E+02 0.722E+02 0.573E+01   -.761E+02 -.727E+02 -.560E+01   -.409E+00 0.540E+00 -.105E+00   -.425E-02 0.372E-02 0.124E-02
   0.764E+02 -.715E+02 -.588E+01   -.759E+02 0.720E+02 0.576E+01   -.403E+00 -.527E+00 0.987E-01   0.419E-03 0.654E-02 -.151E-02
   -.778E+02 -.702E+02 -.474E+01   0.772E+02 0.708E+02 0.466E+01   0.509E+00 -.575E+00 0.513E-01   -.227E-02 -.492E-02 -.144E-02
   -.775E+02 0.699E+02 0.462E+01   0.770E+02 -.704E+02 -.454E+01   0.508E+00 0.569E+00 -.600E-01   0.373E-03 -.363E-02 0.133E-02
   -.249E+02 0.515E+02 0.872E+01   0.254E+02 -.542E+02 -.998E+01   -.492E+00 0.262E+01 0.126E+01   -.610E-03 0.266E-02 0.693E-03
   -.248E+02 -.515E+02 -.885E+01   0.253E+02 0.541E+02 0.101E+02   -.490E+00 -.260E+01 -.126E+01   -.124E-02 0.368E-02 -.109E-02
   0.257E+02 -.505E+02 -.973E+01   -.263E+02 0.531E+02 0.112E+02   0.557E+00 -.260E+01 -.150E+01   -.316E-03 -.508E-02 0.123E-02
   0.257E+02 0.504E+02 0.973E+01   -.262E+02 -.530E+02 -.112E+02   0.545E+00 0.256E+01 0.148E+01   0.957E-03 -.239E-02 -.578E-03
   -.139E+03 -.535E+02 -.425E+01   0.148E+03 0.556E+02 0.479E+01   -.874E+01 -.205E+01 -.546E+00   -.824E-03 0.629E-03 -.662E-02
   -.139E+03 0.537E+02 0.419E+01   0.148E+03 -.557E+02 -.471E+01   -.877E+01 0.206E+01 0.519E+00   -.138E-02 0.650E-03 0.260E-02
   0.139E+03 0.526E+02 0.455E+01   -.148E+03 -.546E+02 -.511E+01   0.873E+01 0.205E+01 0.562E+00   0.283E-02 0.119E-02 0.393E-02
   0.139E+03 -.525E+02 -.460E+01   -.148E+03 0.546E+02 0.517E+01   0.874E+01 -.205E+01 -.576E+00   -.140E-02 -.780E-03 -.608E-02
   0.440E+01 -.305E+02 -.144E+01   -.498E+01 0.319E+02 0.176E+01   0.581E+00 -.140E+01 -.320E+00   -.772E-03 -.395E-02 -.317E-03
   0.459E+01 0.308E+02 0.166E+01   -.521E+01 -.321E+02 -.203E+01   0.622E+00 0.139E+01 0.375E+00   0.437E-03 -.592E-02 0.308E-02
   -.496E+01 0.312E+02 0.525E+00   0.561E+01 -.327E+02 -.723E+00   -.658E+00 0.146E+01 0.201E+00   -.147E-02 0.425E-02 0.457E-02
   -.522E+01 -.315E+02 -.376E+00   0.589E+01 0.330E+02 0.540E+00   -.669E+00 -.145E+01 -.163E+00   0.741E-03 0.551E-02 -.491E-03
   0.116E+03 -.593E+02 0.546E+00   -.122E+03 0.644E+02 -.964E+00   0.617E+01 -.510E+01 0.423E+00   0.917E-03 0.158E-02 -.936E-03
   0.116E+03 0.595E+02 -.359E+00   -.122E+03 -.646E+02 0.752E+00   0.617E+01 0.511E+01 -.398E+00   0.794E-03 -.817E-03 0.132E-02
   -.115E+03 0.585E+02 -.895E+00   0.122E+03 -.636E+02 0.130E+01   -.613E+01 0.514E+01 -.406E+00   -.290E-02 0.674E-03 0.149E-03
   -.116E+03 -.587E+02 0.745E+00   0.122E+03 0.639E+02 -.113E+01   -.612E+01 -.515E+01 0.382E+00   0.124E-02 -.295E-02 -.422E-03
   -.442E+00 0.482E-02 -.156E-01   -.142E-12 -.568E-13 -.526E-13   0.417E+00 -.840E-02 0.238E-01   -.750E-02 -.113E-02 0.515E-04

 POSITION                                       TOTAL-FORCE (eV/Angst)
      2.32884      9.01689      0.68803        -0.001109      0.004731      0.002528
      6.92127      6.96158      0.76322        -0.004583      0.001131     -0.003574
      6.85778      1.62214      2.31417         0.003255     -0.008801      0.004337
      2.26477      3.67476      2.25143         0.001922      0.003418     -0.003754
      8.55704      9.45194      0.68261         0.006291      0.010327      0.003516
      3.96370      6.52588      0.77075        -0.001441      0.012991     -0.002851
      0.62941      1.17936      2.30662        -0.005703     -0.014437      0.010587
      5.22181      4.11735      2.25954        -0.003605     -0.000650     -0.006865
      8.46008      4.20582      0.75911         0.016146     -0.018286      0.001267
      3.86763      1.11417      0.74399         0.011744     -0.014804     -0.003226
      0.72499      6.42998      2.24847         0.004818      0.010079     -0.008383
      5.31859      9.52562      2.26466        -0.020027      0.012123      0.002203
      6.51927      3.59386      0.78691         0.000034      0.009048     -0.003413
      1.92670      1.72472      0.71663         0.001625     -0.002790      0.006268
      2.66548      7.04576      2.23384        -0.003030     -0.005444     -0.008962
      7.25852      8.91082      2.28142         0.000291     -0.003705      0.003301
      5.68142      0.24566      0.77917        -0.008844     -0.000707     -0.009167
      1.08852      5.07340      0.72450        -0.011387      0.000627     -0.000545
      3.50459     10.39355      2.22929         0.010145      0.004907      0.002636
      8.09728      5.56284      2.28285         0.002221     -0.004287     -0.006736
      0.18735      7.64030      0.73236        -0.002990     -0.010789      0.001339
      4.78009      8.33833      0.71990         0.001390     -0.007274      0.010607
      8.99736      2.99407      2.27375        -0.002894      0.009091      0.007636
      4.40438      2.30211      2.29223         0.004397      0.014721      0.000910
      8.45494      0.77484      0.78342         0.008115     -0.008384      0.004359
      3.86152      4.54420      0.72096         0.010366      0.002624     -0.003143
      0.73085      9.85768      2.20921        -0.012745      0.003032      0.003448
      5.32276      6.09792      2.30521        -0.004402      0.001508     -0.004321
    total drift:                               -0.031859     -0.004704      0.008322

  FREE ENERGIE OF THE ION-ELECTRON SYSTEM (eV)
  free  energy   TOTEN  =      -353.94607200 eV

  energy  without entropy=     -353.94607200  energy(sigma->0) =     -353.94607200

 d Force = 0.1380684E-03[-0.652E-04, 0.341E-03]  d Energy = 0.4196426E-03-0.282E-03
 d Force = 0.4286265E-02[ 0.981E-04, 0.847E-02]  d Ewald  =-0.7426046E+01 0.743E+01

 Steepest descent step on ions:
 trial-energy change:   -0.000420  1 .order   -0.000088   -0.000831    0.000656
  (g-gl).g = 0.831E-03      g.g   = 0.831E-03  gl.gl    = 0.000E+00
 g(Force)  = 0.341E-03   g(Stress)= 0.490E-03 ortho     = 0.000E+00
 gamma     =   0.00000
 trial     =   1.00000
 opt step  =   0.78506  (harmonic =   0.55901) maximal distance =0.00108437
 next E    =  -353.946139   (d E  =  -0.00049)

 reached required accuracy - stopping structural energy minimisation

 total charge

[...]

 magnetization (x)

# of ion       s       p       d       tot
    1        0.000  -0.000   0.008   0.008
    2        0.000  -0.000   0.008   0.008
    3        0.000  -0.000   0.008   0.008
    4        0.000  -0.000   0.008   0.008
    5        0.013   0.014   1.875   1.902
    6        0.013   0.014   1.875   1.902
    7        0.013   0.014   1.875   1.902
    8        0.013   0.014   1.876   1.903
    9        0.012   0.015   1.827   1.853
   10        0.012   0.015   1.827   1.853
   11        0.012   0.015   1.827   1.854
   12        0.012   0.015   1.827   1.853
   13       -0.000  -0.006   0.000  -0.007
   14       -0.000  -0.006   0.000  -0.007
   15       -0.000  -0.007   0.000  -0.007
   16       -0.000  -0.007   0.000  -0.007
   17        0.000   0.004   0.000   0.004
   18        0.001   0.004   0.000   0.005
   19        0.001   0.004   0.000   0.005
   20        0.001   0.004   0.000   0.005
   21       -0.001  -0.016   0.000  -0.017
   22       -0.001  -0.016   0.000  -0.017
   23       -0.001  -0.017   0.000  -0.018
   24       -0.001  -0.017   0.000  -0.018
   25       -0.000  -0.001   0.000  -0.001
   26       -0.000  -0.001   0.000  -0.001
   27       -0.000  -0.001   0.000  -0.001
   28       -0.000  -0.001   0.000  -0.001
tot          0.094   0.036  14.841  14.971