 vasp.6.1.2 22Jul20 (build Dec 05 2020 14:50:36) complex

 executed on         CrayXC-Intel date 2021.06.14  07:13:23

 INCAR:
 POTCAR:    PAW_PBE Ca_sv 06Sep2000
 POTCAR:    PAW_PBE V_pv 07Sep2000
 POTCAR:    PAW_PBE O 08Apr2002
 POTCAR:    PAW_PBE Ca_sv 06Sep2000
   VRHFIN =Ca: 3s3p4s

   TITEL  = PAW_PBE Ca_sv 06Sep2000
   POMASS =   40.078; ZVAL   =   10.000    mass and valenz
   ENMAX  =  266.622; ENMIN  =  199.967 eV

 POTCAR:    PAW_PBE V_pv 07Sep2000
   VRHFIN =V: p6 d4 s1

   TITEL  = PAW_PBE V_pv 07Sep2000
   POMASS =   50.941; ZVAL   =   11.000    mass and valenz
   ENMAX  =  263.673; ENMIN  =  197.755 eV

 POTCAR:    PAW_PBE O 08Apr2002
   VRHFIN =O: s2p4

   TITEL  = PAW_PBE O 08Apr2002
   POMASS =   16.000; ZVAL   =    6.000    mass and valenz
   ENMAX  =  400.000; ENMIN  =  300.000 eV

 Optimization of the real space projectors (new method)

 maximal supplied QI-value         = 16.25
 optimisation between [QCUT,QGAM] = [ 11.54, 23.24] = [ 37.28,151.24] Ry
 Optimized for a Real-space Cutoff    1.58 Angstroem

   l    n(q)    QCUT    max X(q) W(low)/X(q) W(high)/X(q)  e(spline)
   0     11    11.539    11.817    0.25E-04    0.22E-05    0.26E-07
   0     11    11.539     8.461    0.39E-04    0.49E-05    0.55E-07
   1     11    11.539     3.957    0.21E-05    0.44E-05    0.32E-07
   1     11    11.539     4.314    0.56E-04    0.44E-04    0.19E-06
   2     10    11.539    14.565    0.25E-03    0.21E-04    0.75E-06
   2     10    11.539    14.552    0.23E-03    0.22E-04    0.72E-06
 Optimization of the real space projectors (new method)

[...]

   l    n(q)    QCUT    max X(q) W(low)/X(q) W(high)/X(q)  e(spline)
   1     10    11.539     3.206    0.43E-05    0.46E-05    0.52E-07
   1     10    11.539     4.597    0.39E-04    0.25E-04    0.17E-06
   2     10    11.539    89.000    0.10E-03    0.13E-03    0.24E-06
   2     10    11.539    82.410    0.10E-03    0.13E-03    0.23E-06
   0     11    11.539    36.565    0.42E-04    0.19E-04    0.30E-06
   0     11    11.539    13.729    0.20E-04    0.13E-04    0.22E-06
 Optimization of the real space projectors (new method)

 maximal supplied QI-value         = 24.76
 optimisation between [QCUT,QGAM] = [ 11.64, 23.27] = [ 37.91,151.63] Ry
 Optimized for a Real-space Cutoff    1.14 Angstroem

   l    n(q)    QCUT    max X(q) W(low)/X(q) W(high)/X(q)  e(spline)
   0      8    11.635    20.381    0.10E-03    0.33E-03    0.24E-06
   0      8    11.635    15.268    0.11E-03    0.35E-03    0.26E-06
   1      7    11.635     5.964    0.24E-03    0.31E-03    0.30E-06
   1      7    11.635     5.382    0.22E-03    0.25E-03    0.26E-06
  PAW_PBE Ca_sv 06Sep2000               :
  PAW_PBE V_pv 07Sep2000                :
  PAW_PBE O 08Apr2002                   :

 POSCAR: Ca4 V4 O14
  positions in direct lattice
  velocities in cartesian coordinates

 METAGGA = SCAN     LMAXTAU =  6    LMIXTAU =  F

 ion  position               nearest neighbor table
   1  0.742  0.841  0.330-  16 2.31  11 2.36  14 2.39  19 2.39  21 2.43  20 2.44   9 2.49
   2  0.258  0.159  0.670-  15 2.31  12 2.36  13 2.39  20 2.39  22 2.43  19 2.44  10 2.49
   3  0.269  0.561  0.265-  16 2.31  22 2.39  18 2.39  17 2.39  13 2.43  14 2.52
   4  0.731  0.439  0.735-  15 2.31  21 2.39  17 2.39  18 2.39  14 2.43  13 2.52
   5  0.195  0.666  0.768-  19 1.70  17 1.71  13 1.74   9 1.75
   6  0.805  0.334  0.232-  20 1.70  18 1.71  14 1.74  10 1.75
   7  0.726  0.945  0.846-  21 1.67  15 1.69  11 1.87  12 1.88   9 2.01   8 2.88
   8  0.274  0.055  0.154-  22 1.67  16 1.69  12 1.87  11 1.88  10 2.01   7 2.88
   9  0.949  0.802  0.939-   5 1.75   7 2.01   1 2.49
  10  0.051  0.198  0.061-   6 1.75   8 2.01   2 2.49
  11  0.534  0.900  0.130-   7 1.87   8 1.88   1 2.36
  12  0.466  0.100  0.870-   8 1.87   7 1.88   2 2.36
  13  0.131  0.492  0.643-   5 1.74   2 2.39   3 2.43   4 2.52
  14  0.869  0.508  0.357-   6 1.74   1 2.39   4 2.43   3 2.52
  15  0.893  0.126  0.734-   7 1.69   2 2.31   4 2.31
  16  0.107  0.874  0.266-   8 1.69   1 2.31   3 2.31
  17  0.342  0.554  0.899-   5 1.71   4 2.39   3 2.39
  18  0.658  0.446  0.101-   6 1.71   3 2.39   4 2.39
  19  0.359  0.817  0.576-   5 1.70   1 2.39   2 2.44
  20  0.641  0.183  0.424-   6 1.70   2 2.39   1 2.44
  21  0.750  0.780  0.672-   7 1.67   4 2.39   1 2.43
  22  0.250  0.220  0.328-   8 1.67   3 2.39   2 2.43

IMPORTANT INFORMATION: All symmetrisations will be switched off!
NOSYMM: (Re-)initialisation of all symmetry stuff for point group C_1.

                                     Primitive cell

  volume of cell :     289.5182

  direct lattice vectors                    reciprocal lattice vectors
     5.987175964  0.029403208  2.940994547     0.167093052 -0.016161338  0.000020297
     0.666477818  6.891321712  0.451644566    -0.000560095  0.145184614 -0.000311292
     0.000603383  0.015055902  7.020900695    -0.069957803 -0.002569675  0.142443391

  length of vectors
     6.670576400  6.938190718  7.020916864     0.167872800  0.145186028  0.158716152

  position of ions in fractional coordinates (direct lattice)
     0.742227623  0.841215327  0.329851551
     0.257776780  0.158788046  0.670143742
     0.268944980  0.560660532  0.264674688
     0.731062219  0.439339178  0.735325883
     0.195166765  0.666020128  0.768282952
     0.804824418  0.333984630  0.231724146
     0.726315269  0.944880219  0.845661251
     0.273680556  0.055122019  0.154332784
     0.949171117  0.802054944  0.938702900
     0.050820672  0.197949070  0.061306788
     0.533809665  0.899959261  0.130285977
     0.466186335  0.100046406  0.869715868
     0.131398432  0.492019246  0.642676610
     0.868595524  0.507979390  0.357322701
     0.893362911  0.125927447  0.733672537
     0.106646837  0.874059525  0.266316796
     0.341551544  0.553670530  0.899272474
     0.658440784  0.446332711  0.100725527
     0.358992044  0.817329678  0.576039585
     0.641016997  0.182668446  0.423958188
     0.749570679  0.780418859  0.672432423
     0.250437847  0.219574407  0.327574629

  ion indices of the primitive-cell ions
   primitive index   ion index
                 1           1
                 2           2
                 3           3
                 4           4
                 5           5
                 6           6
                 7           7
                 8           8
                 9           9
                10          10
                11          11
                12          12
                13          13
                14          14
                15          15
                16          16
                17          17
                18          18
                19          19
                20          20
                21          21
                22          22

 KPOINTS: K-points file

Automatic generation of k-mesh.
Space group operators:
 irot       det(A)        alpha          n_x          n_y          n_z        tau_x        tau_y        tau_z
    1     1.000000     0.000000     1.000000     0.000000     0.000000     0.000000     0.000000     0.000000

 Subroutine IBZKPT returns following result:

 Found     63 irreducible k-points:

 Following reciprocal coordinates:
            Coordinates               Weight
  0.000000  0.000000  0.000000      1.000000
  0.200000 -0.000000 -0.000000      2.000000
  0.400000 -0.000000 -0.000000      2.000000
  0.000000  0.200000 -0.000000      2.000000
  0.200000  0.200000 -0.000000      2.000000
  0.400000  0.200000  0.000000      2.000000
 -0.400000  0.200000  0.000000      2.000000
 -0.200000  0.200000  0.000000      2.000000
  0.000000  0.400000 -0.000000      2.000000
  0.200000  0.400000 -0.000000      2.000000
  0.400000  0.400000  0.000000      2.000000
 -0.400000  0.400000  0.000000      2.000000
 -0.200000  0.400000 -0.000000      2.000000
  0.000000  0.000000  0.200000      2.000000
  0.200000  0.000000  0.200000      2.000000
  0.400000 -0.000000  0.200000      2.000000
 -0.400000  0.000000  0.200000      2.000000
 -0.200000  0.000000  0.200000      2.000000
  0.000000  0.200000  0.200000      2.000000
  0.200000  0.200000  0.200000      2.000000
  0.400000  0.200000  0.200000      2.000000
 -0.400000  0.200000  0.200000      2.000000
 -0.200000  0.200000  0.200000      2.000000
  0.000000  0.400000  0.200000      2.000000
  0.200000  0.400000  0.200000      2.000000
  0.400000  0.400000  0.200000      2.000000
 -0.400000  0.400000  0.200000      2.000000
 -0.200000  0.400000  0.200000      2.000000
  0.000000 -0.400000  0.200000      2.000000
  0.200000 -0.400000  0.200000      2.000000
  0.400000 -0.400000  0.200000      2.000000
 -0.400000 -0.400000  0.200000      2.000000
 -0.200000 -0.400000  0.200000      2.000000
  0.000000 -0.200000  0.200000      2.000000
  0.200000 -0.200000  0.200000      2.000000
  0.400000 -0.200000  0.200000      2.000000
 -0.400000 -0.200000  0.200000      2.000000
 -0.200000 -0.200000  0.200000      2.000000
  0.000000 -0.000000  0.400000      2.000000
  0.200000  0.000000  0.400000      2.000000
  0.400000 -0.000000  0.400000      2.000000
 -0.400000  0.000000  0.400000      2.000000
 -0.200000 -0.000000  0.400000      2.000000
  0.000000  0.200000  0.400000      2.000000
  0.200000  0.200000  0.400000      2.000000
  0.400000  0.200000  0.400000      2.000000
 -0.400000  0.200000  0.400000      2.000000
 -0.200000  0.200000  0.400000      2.000000
  0.000000  0.400000  0.400000      2.000000
  0.200000  0.400000  0.400000      2.000000
  0.400000  0.400000  0.400000      2.000000
 -0.400000  0.400000  0.400000      2.000000
 -0.200000  0.400000  0.400000      2.000000
  0.000000 -0.400000  0.400000      2.000000
  0.200000 -0.400000  0.400000      2.000000
  0.400000 -0.400000  0.400000      2.000000
 -0.400000 -0.400000  0.400000      2.000000
 -0.200000 -0.400000  0.400000      2.000000
  0.000000 -0.200000  0.400000      2.000000
  0.200000 -0.200000  0.400000      2.000000
  0.400000 -0.200000  0.400000      2.000000
 -0.400000 -0.200000  0.400000      2.000000
 -0.200000 -0.200000  0.400000      2.000000

 Following cartesian coordinates:
            Coordinates               Weight
  0.000000  0.000000  0.000000      1.000000
  0.033419 -0.003232  0.000004      2.000000
  0.066837 -0.006465  0.000008      2.000000
 -0.000112  0.029037 -0.000062      2.000000
  0.033307  0.025805 -0.000058      2.000000
  0.066725  0.022572 -0.000054      2.000000
 -0.066949  0.035501 -0.000070      2.000000
 -0.033531  0.032269 -0.000066      2.000000
 -0.000224  0.058074 -0.000125      2.000000
  0.033195  0.054842 -0.000120      2.000000
  0.066613  0.051609 -0.000116      2.000000
 -0.067061  0.064538 -0.000133      2.000000
 -0.033643  0.061306 -0.000129      2.000000
 -0.013992 -0.000514  0.028489      2.000000
  0.019427 -0.003746  0.028493      2.000000
  0.052846 -0.006978  0.028497      2.000000
 -0.080829  0.005951  0.028481      2.000000
 -0.047410  0.002718  0.028485      2.000000
 -0.014104  0.028523  0.028426      2.000000
  0.019315  0.025291  0.028430      2.000000
  0.052734  0.022058  0.028435      2.000000
 -0.080941  0.034988  0.028418      2.000000
 -0.047522  0.031755  0.028422      2.000000
[...]
  o =  0.4125  v =  0.4203 -0.7448 -0.4188 -0.1066  0.2860  0.0000  0.0000  0.0000  0.0000  0.0000      0.0000  0.0000  0.0000  0.0000  0.0000  0.0000  0.0000  0.0000  0.0000  0.0000
  o =  0.4125  v =  0.0000  0.0000  0.0000  0.0000  0.0000  0.4203 -0.7448 -0.4188 -0.1066  0.2860      0.0000  0.0000  0.0000  0.0000  0.0000  0.0000  0.0000  0.0000  0.0000  0.0000

 eigenvalue-minimisations  : 15120
 total energy-change (2. order) : 0.1931505E-05  (-0.4257032E-06)
 number of electron     167.9999999 magnetization      -0.0000000
 augmentation part       37.7576522 magnetization      -0.0000015

 Free energy of the ion-electron system (eV)
  alpha Z        PSCENC =       773.40721062
  Ewald energy   TEWEN  =    -10521.04160793
  -Hartree energ DENC   =     -4384.17759093
  -exchange      EXHF   =         0.00000000
  -V(xc)+E(xc)   XCENC  =       819.90236420
  PAW double counting   =     18107.64465498   -18136.60071481
  entropy T*S    EENTRO =        -0.00000000
  eigenvalues    EBANDS =     -2280.32335089
  atomic energy  EATOM  =     15363.82740373
  Solvation  Ediel_sol  =         0.00000000
  free energy    TOTEN  =      -257.36163103 eV

  energy without entropy =     -257.36163103  energy(sigma->0) =     -257.36163103

 average (electrostatic) potential at core
  the test charge radii are     1.1137  0.9339  0.7215
  (the norm of the test charge is              1.0000)
       1 -49.3561       2 -49.3561       3 -49.7377       4 -49.7379       5 -57.2620
       6 -57.2618       7 -57.7106       8 -57.7106       9 -76.6407      10 -76.6407
      11 -76.6169      12 -76.6172      13 -76.4168      14 -76.4171      15 -76.4223
      16 -76.4219      17 -76.3976      18 -76.3974      19 -76.4407      20 -76.4410
      21 -76.6829      22 -76.6826

 E-fermi :   0.8524     XC(G=0): -10.7716     alpha+bet :-10.5125

[...]

 k-point     1 :       0.0000    0.0000    0.0000
  band No.  band energies     occupation
      1     -39.0800      1.00000
      2     -39.0625      1.00000
      3     -39.0427      1.00000
      4     -38.9544      1.00000
      5     -38.9115      1.00000
      6     -38.8892      1.00000
      7     -38.6775      1.00000
      8     -38.6739      1.00000
      9     -38.6735      1.00000
     10     -38.6595      1.00000
     11     -38.6491      1.00000
     12     -38.6448      1.00000
     13     -38.6119      1.00000
     14     -38.6116      1.00000
     15     -38.3166      1.00000
     16     -38.3087      1.00000
     17     -19.1606      1.00000
     18     -19.1307      1.00000
     19     -19.0347      1.00000
     20     -18.9656      1.00000
     21     -18.8770      1.00000
     22     -18.7736      1.00000
     23     -18.7288      1.00000
     24     -18.6948      1.00000
     25     -18.6804      1.00000
     26     -18.6543      1.00000
     27     -18.5639      1.00000
     28     -18.5153      1.00000
     29     -17.5573      1.00000
     30     -16.8674      1.00000
     31     -16.8013      1.00000
     32     -16.6328      1.00000
     33     -16.5069      1.00000
     34     -16.4535      1.00000
     35     -16.3739      1.00000
     36     -16.2970      1.00000
     37     -16.1274      1.00000
     38     -16.0971      1.00000
     39     -16.0114      1.00000
     40     -15.9921      1.00000
     41     -15.9170      1.00000
     42     -15.8668      1.00000
     43      -3.6041      1.00000
     44      -3.4500      1.00000
     45      -3.2759      1.00000
     46      -3.1740      1.00000
     47      -3.1449      1.00000
     48      -3.0861      1.00000
     49      -2.8791      1.00000
     50      -2.8076      1.00000
     51      -2.6718      1.00000
     52      -2.5812      1.00000
     53      -2.5132      1.00000
     54      -2.4931      1.00000
     55      -2.3710      1.00000
     56      -2.2119      1.00000
     57      -2.2027      1.00000
     58      -2.1872      1.00000
     59      -2.0358      1.00000
     60      -1.9955      1.00000
[...]
     88       4.2172      0.00000
     89       4.4594      0.00000
     90       4.4804      0.00000
     91       4.7753      0.00000
     92       4.8025      0.00000
     93       5.2447      0.00000
     94       5.4738      0.00000
     95       5.5792      0.00000
     96       5.7019      0.00000
     97       5.8006      0.00000
     98       5.9704      0.00000
     99       6.0072      0.00000
    100       6.0928      0.00000
    101       6.2290      0.00000
    102       6.3433      0.00000

[...]

 spin component 2

[...]

 k-point    63 :      -0.2000   -0.2000    0.4000
  band No.  band energies     occupation
      1     -39.0800      1.00000
      2     -39.0626      1.00000
      3     -39.0429      1.00000
      4     -38.9549      1.00000
      5     -38.9115      1.00000
      6     -38.8894      1.00000
      7     -38.6858      1.00000
      8     -38.6798      1.00000
      9     -38.6612      1.00000
     10     -38.6596      1.00000
     11     -38.6485      1.00000
     12     -38.6461      1.00000
     13     -38.6121      1.00000
     14     -38.6087      1.00000
     15     -38.3154      1.00000
     16     -38.3086      1.00000
     17     -19.1223      1.00000
     18     -19.0973      1.00000
     19     -19.0579      1.00000
     20     -18.9770      1.00000
     21     -18.9370      1.00000
     22     -18.8647      1.00000
     23     -18.7557      1.00000
     24     -18.7241      1.00000
     25     -18.7099      1.00000
     26     -18.6550      1.00000
     27     -18.5499      1.00000
     28     -18.5090      1.00000
     29     -17.2336      1.00000
     30     -16.7875      1.00000
     31     -16.7110      1.00000
     32     -16.6487      1.00000
     33     -16.4868      1.00000
     34     -16.3975      1.00000
     35     -16.3865      1.00000
     36     -16.3361      1.00000
     37     -16.1827      1.00000
     38     -16.1522      1.00000
     39     -16.0979      1.00000
     40     -16.0637      1.00000
     41     -15.9429      1.00000
     42     -15.9042      1.00000
     43      -3.5935      1.00000
     44      -3.5351      1.00000
     45      -3.2800      1.00000
     46      -3.1392      1.00000
     47      -3.1307      1.00000
     48      -2.9777      1.00000
     49      -2.8579      1.00000
     50      -2.8286      1.00000
     51      -2.7026      1.00000
     52      -2.5975      1.00000
     53      -2.5618      1.00000
     54      -2.4611      1.00000
     55      -2.4165      1.00000
     56      -2.3013      1.00000
     57      -2.2853      1.00000
     58      -2.1767      1.00000
     59      -2.0962      1.00000
     60      -1.9868      1.00000
[...]
     88       4.2286      0.00000
     89       4.5492      0.00000
     90       4.5769      0.00000
     91       4.7516      0.00000
     92       4.8323      0.00000
     93       5.2549      0.00000
     94       5.4039      0.00000
     95       5.4883      0.00000
     96       5.8025      0.00000
     97       5.8468      0.00000
     98       5.8854      0.00000
     99       6.0014      0.00000
    100       6.0888      0.00000
    101       6.1419      0.00000
    102       6.2085      0.00000

 soft charge-density along one line, spin component           1
         0         1         2         3         4         5         6         7         8         9
 total charge-density along one line

 soft charge-density along one line, spin component           2
         0         1         2         3         4         5         6         7         8         9
 total charge-density along one line

------------------------ aborting loop because EDIFF is reached ----------------------------------------

 total charge

# of ion       s       p       d       tot
    1        2.021   5.870   0.217   8.108
    2        2.021   5.870   0.217   8.108
    3        2.018   5.864   0.205   8.087
    4        2.018   5.864   0.205   8.087
    5        0.466   6.475   3.138  10.079
    6        0.466   6.475   3.138  10.079
    7        0.427   6.467   3.027   9.921
    8        0.427   6.467   3.027   9.921
    9        1.585   3.490   0.000   5.075
   10        1.585   3.490   0.000   5.075
   11        1.586   3.498   0.000   5.084
   12        1.586   3.498   0.000   5.084
   13        1.583   3.487   0.000   5.070
   14        1.583   3.487   0.000   5.070
   15        1.594   3.483   0.000   5.077
   16        1.594   3.483   0.000   5.077
   17        1.587   3.469   0.000   5.056
   18        1.587   3.469   0.000   5.056
   19        1.588   3.464   0.000   5.053
   20        1.588   3.464   0.000   5.053
   21        1.598   3.459   0.000   5.057
   22        1.598   3.459   0.000   5.057
tot         32.104  98.053  13.174 143.330

 magnetization (x)

[...]

  FORCE on cell =-STRESS in cart. coord.  units (eV):
  Direction    XX          YY          ZZ          XY          YZ          ZX
  Alpha Z   773.40721   773.40721   773.40721
  Ewald   -3247.72753 -3588.75647 -3684.58709  -294.62489  -188.96042     5.60980
  Hartree  1651.26773  1376.38541  1356.60254  -200.91463  -125.85959    28.47358
  E(xc)    -891.49371  -891.68410  -891.43561    -0.04312    -0.17662    -0.11444
  Local    -852.09102  -233.12503  -123.85014   493.24371   315.72260   -34.49626
  n-local  -725.94191  -727.93585  -728.05349    -1.11616    -0.91626     0.72880
  augment   373.05136   373.49285   373.51982     0.84838     0.34370    -0.24885
  Kinetic  2919.59400  2918.32675  2924.49945     2.57991    -0.09965     0.01752
  Fock        0.00000     0.00000     0.00000     0.00000     0.00000     0.00000
  Total       0.06613     0.11077     0.10268    -0.02681     0.05377    -0.02986
  in kB       0.36596     0.61301     0.56825    -0.14834     0.29756    -0.16522

 VOLUME and BASIS-vectors are now :
  energy-cutoff  :      520.00
  volume of cell :      289.52
      direct lattice vectors                 reciprocal lattice vectors
     5.987175964  0.029403208  2.940994547     0.167093052 -0.016161338  0.000020297
     0.666477818  6.891321712  0.451644566    -0.000560095  0.145184614 -0.000311292
     0.000603383  0.015055902  7.020900695    -0.069957803 -0.002569675  0.142443391

  length of vectors
     6.670576400  6.938190718  7.020916864     0.167872800  0.145186028  0.158716152

 FORCES acting on ions
    electron-ion (+dipol)            ewald-force                    non-local-force                 convergence-correction
   0.334E+02 0.345E+02 -.159E+02   -.330E+02 -.347E+02 0.167E+02   -.361E+00 0.189E+00 -.804E+00   0.606E-05 -.128E-03 0.290E-03
   -.334E+02 -.345E+02 0.159E+02   0.330E+02 0.347E+02 -.167E+02   0.361E+00 -.189E+00 0.805E+00   0.198E-04 0.139E-03 -.365E-03
   -.398E+02 -.602E+01 -.301E+02   0.388E+02 0.495E+01 0.288E+02   0.984E+00 0.107E+01 0.130E+01   0.449E-04 0.847E-04 0.232E-03
   0.398E+02 0.604E+01 0.301E+02   -.389E+02 -.497E+01 -.288E+02   -.984E+00 -.107E+01 -.130E+01   -.577E-04 -.121E-03 -.216E-03
   -.386E+02 0.528E+02 -.124E+02   0.381E+02 -.529E+02 0.123E+02   0.604E+00 0.843E-01 0.333E-01   0.875E-04 -.184E-03 -.273E-04
   0.386E+02 -.528E+02 0.124E+02   -.381E+02 0.529E+02 -.124E+02   -.604E+00 -.904E-01 -.239E-01   -.123E-03 0.200E-03 0.224E-04
   -.483E+02 0.202E+02 0.782E+01   0.477E+02 -.199E+02 -.675E+01   0.686E+00 -.311E+00 -.132E+01   0.288E-03 0.291E-03 -.630E-04
   0.483E+02 -.203E+02 -.782E+01   -.477E+02 0.199E+02 0.675E+01   -.676E+00 0.306E+00 0.132E+01   -.257E-03 -.254E-03 0.126E-03
   0.428E+02 -.809E+01 -.130E+03   -.508E+02 0.127E+02 0.142E+03   0.799E+01 -.461E+01 -.119E+02   -.960E-04 0.561E-04 0.322E-03
   -.428E+02 0.808E+01 0.130E+03   0.508E+02 -.127E+02 -.142E+03   -.798E+01 0.461E+01 0.119E+02   -.638E-04 0.460E-04 -.357E-03
   0.566E-01 0.142E+03 -.170E+03   0.499E+00 -.153E+03 0.185E+03   -.565E+00 0.114E+02 -.144E+02   0.965E-04 -.399E-03 0.613E-03
   -.646E-01 -.142E+03 0.170E+03   -.490E+00 0.153E+03 -.185E+03   0.565E+00 -.114E+02 0.144E+02   0.142E-03 0.353E-03 -.674E-03
   0.277E+02 0.110E+03 0.103E+03   -.337E+02 -.122E+03 -.114E+03   0.605E+01 0.114E+02 0.111E+02   -.446E-04 -.423E-03 -.426E-03
   -.277E+02 -.110E+03 -.103E+03   0.338E+02 0.122E+03 0.114E+03   -.605E+01 -.114E+02 -.111E+02   0.414E-04 0.365E-03 0.355E-03
   -.129E+03 -.143E+03 0.574E+02   0.142E+03 0.155E+03 -.619E+02   -.129E+02 -.116E+02 0.450E+01   0.358E-03 0.392E-03 -.136E-03
   0.129E+03 0.143E+03 -.574E+02   -.142E+03 -.155E+03 0.619E+02   0.129E+02 0.116E+02 -.450E+01   -.513E-03 -.567E-03 0.162E-03
   -.838E+02 0.953E+02 -.119E+03   0.909E+02 -.104E+03 0.132E+03   -.705E+01 0.861E+01 -.134E+02   0.250E-03 -.173E-03 0.277E-03
   0.838E+02 -.952E+02 0.119E+03   -.909E+02 0.104E+03 -.132E+03   0.705E+01 -.860E+01 0.134E+02   -.229E-03 0.131E-03 -.200E-03
   -.118E+03 -.708E+02 0.105E+03   0.129E+03 0.817E+02 -.116E+03   -.112E+02 -.109E+02 0.104E+02   0.303E-03 0.216E-03 -.254E-03
   0.118E+03 0.708E+02 -.105E+03   -.129E+03 -.817E+02 0.116E+03   0.112E+02 0.109E+02 -.104E+02   -.258E-03 -.161E-03 0.203E-03
   -.289E+01 0.142E+03 0.162E+03   0.419E+01 -.155E+03 -.177E+03   -.130E+01 0.131E+02 0.154E+02   0.405E-04 -.296E-03 -.501E-03
   0.288E+01 -.142E+03 -.162E+03   -.418E+01 0.155E+03 0.177E+03   0.130E+01 -.131E+02 -.154E+02   -.305E-04 0.487E-03 0.684E-03
   -.324E-02 0.698E-02 -.650E-02   0.178E-14 0.568E-13 -.853E-13   0.349E-02 -.801E-02 0.692E-02   0.512E-05 0.563E-04 0.657E-04

 POSITION                                       TOTAL-FORCE (eV/Angst)
      5.00470      5.82388      4.87867        -0.010181      0.004242      0.004617
      1.64959      1.11193      5.53485         0.010169     -0.004251     -0.004593
      1.98405      3.87558      2.90244        -0.009678     -0.003046     -0.004994
      4.67025      3.06019      7.51113         0.009629      0.003078      0.005005
      1.61285      4.60706      6.26883         0.006847     -0.001890      0.007589
      5.04136      2.32875      4.14474        -0.006754      0.001195     -0.008001
      4.97883      6.54556      8.50014        -0.008564      0.014042     -0.006430
      1.67540      0.39023      1.91334         0.008249     -0.014020      0.006916
      6.21797      5.56926      9.74429        -0.017877     -0.008000      0.012818
      0.43624      1.36655      0.66929         0.017648      0.008234     -0.012811
      3.79589      6.21957      2.89112        -0.009683      0.019496      0.004689
      2.85834      0.71625      7.52243         0.009909     -0.019480     -0.004847
      1.11501      3.40420      5.12083        -0.001945     -0.006136     -0.017312
      5.53921      3.53157      5.29269         0.001954      0.006262      0.017489
      5.43309      0.90512      7.83529        -0.008454      0.002000      0.005180
      1.22122      6.03057      2.57820         0.008549     -0.001771     -0.005308
      2.41448      3.83910      7.56827         0.010745     -0.005042      0.014588
      4.23973      3.09670      2.84524        -0.010645      0.004950     -0.014452
      2.69443      5.65171      5.46925         0.000611      0.020690      0.003673
      3.95988      1.28406      4.94430        -0.000464     -0.020406     -0.003393
      5.00835      5.41028      7.27804         0.005551      0.008919      0.012942
      1.64595      1.52545      3.13557        -0.005620     -0.009064     -0.013366
    total drift:                                0.000261     -0.000972      0.000491

  FREE ENERGIE OF THE ION-ELECTRON SYSTEM (eV)
  free  energy   TOTEN  =      -257.36163103 eV

  energy  without entropy=     -257.36163103  energy(sigma->0) =     -257.36163103

 reached required accuracy - stopping structural energy minimisation

 total charge

[...]

 magnetization (x)

# of ion       s       p       d       tot
    1       -0.000  -0.000  -0.000  -0.000
    2        0.000  -0.000   0.000   0.000
    3        0.000  -0.000  -0.000   0.000
    4        0.000  -0.000  -0.000   0.000
    5       -0.000  -0.000  -0.000  -0.000
    6        0.000  -0.000  -0.000  -0.000
    7       -0.000  -0.000  -0.000  -0.000
    8       -0.000  -0.000  -0.000  -0.000
    9        0.000   0.000   0.000   0.000
   10        0.000   0.000   0.000   0.000
   11       -0.000   0.000   0.000   0.000
   12        0.000   0.000   0.000   0.000
   13       -0.000  -0.000   0.000  -0.000
   14       -0.000  -0.000   0.000  -0.000
   15       -0.000   0.000   0.000   0.000
   16       -0.000   0.000   0.000   0.000
   17       -0.000   0.000   0.000   0.000
   18       -0.000   0.000   0.000   0.000
   19       -0.000   0.000   0.000   0.000
   20       -0.000   0.000   0.000   0.000
   21       -0.000   0.000   0.000   0.000
   22       -0.000  -0.000   0.000  -0.000
tot          0.000   0.000  -0.000   0.000