 vasp.6.1.2 22Jul20 (build Dec 05 2020 14:50:36) complex

 executed on         CrayXC-Intel date 2021.06.20  17:13:21

 INCAR:
 POTCAR:    PAW_PBE Ca_sv 06Sep2000
 POTCAR:    PAW_PBE V_pv 07Sep2000
 POTCAR:    PAW_PBE O 08Apr2002
 POTCAR:    PAW_PBE Ca_sv 06Sep2000
   VRHFIN =Ca: 3s3p4s

   TITEL  = PAW_PBE Ca_sv 06Sep2000
   POMASS =   40.078; ZVAL   =   10.000    mass and valenz
   ENMAX  =  266.622; ENMIN  =  199.967 eV

 POTCAR:    PAW_PBE V_pv 07Sep2000
   VRHFIN =V: p6 d4 s1

   TITEL  = PAW_PBE V_pv 07Sep2000
   POMASS =   50.941; ZVAL   =   11.000    mass and valenz
   ENMAX  =  263.673; ENMIN  =  197.755 eV

 POTCAR:    PAW_PBE O 08Apr2002
   VRHFIN =O: s2p4

   TITEL  = PAW_PBE O 08Apr2002
   POMASS =   16.000; ZVAL   =    6.000    mass and valenz
   ENMAX  =  400.000; ENMIN  =  300.000 eV

 Optimization of the real space projectors (new method)

 maximal supplied QI-value         = 16.25
 optimisation between [QCUT,QGAM] = [ 11.54, 23.24] = [ 37.28,151.24] Ry
 Optimized for a Real-space Cutoff    1.58 Angstroem

   l    n(q)    QCUT    max X(q) W(low)/X(q) W(high)/X(q)  e(spline)
   0     11    11.539    11.817    0.25E-04    0.22E-05    0.26E-07
   0     11    11.539     8.461    0.39E-04    0.49E-05    0.55E-07
   1     11    11.539     3.957    0.21E-05    0.44E-05    0.32E-07
   1     11    11.539     4.314    0.56E-04    0.44E-04    0.19E-06
   2     10    11.539    14.565    0.25E-03    0.21E-04    0.75E-06
   2     10    11.539    14.552    0.23E-03    0.22E-04    0.72E-06
 Optimization of the real space projectors (new method)

[...]

   l    n(q)    QCUT    max X(q) W(low)/X(q) W(high)/X(q)  e(spline)
   1     10    11.539     3.206    0.43E-05    0.46E-05    0.52E-07
   1     10    11.539     4.597    0.39E-04    0.25E-04    0.17E-06
   2     10    11.539    89.000    0.10E-03    0.13E-03    0.24E-06
   2     10    11.539    82.410    0.10E-03    0.13E-03    0.23E-06
   0     11    11.539    36.565    0.42E-04    0.19E-04    0.30E-06
   0     11    11.539    13.729    0.20E-04    0.13E-04    0.22E-06
 Optimization of the real space projectors (new method)

 maximal supplied QI-value         = 24.76
 optimisation between [QCUT,QGAM] = [ 11.64, 23.27] = [ 37.91,151.63] Ry
 Optimized for a Real-space Cutoff    1.14 Angstroem

   l    n(q)    QCUT    max X(q) W(low)/X(q) W(high)/X(q)  e(spline)
   0      8    11.635    20.381    0.10E-03    0.33E-03    0.24E-06
   0      8    11.635    15.268    0.11E-03    0.35E-03    0.26E-06
   1      7    11.635     5.964    0.24E-03    0.31E-03    0.30E-06
   1      7    11.635     5.382    0.22E-03    0.25E-03    0.26E-06
  PAW_PBE Ca_sv 06Sep2000               :
  PAW_PBE V_pv 07Sep2000                :
  PAW_PBE O 08Apr2002                   :

 POSCAR: Ca2 V8 O18
  positions in direct lattice
  velocities in cartesian coordinates

 METAGGA = SCAN     LMAXTAU =  6    LMIXTAU =  F

 ion  position               nearest neighbor table
   1  0.750  0.750  0.835-  19 2.41  20 2.41  22 2.41  21 2.41  13 2.46  12 2.46  11 2.46  14 2.46

   2  0.250  0.250  0.165-  24 2.41  23 2.41  25 2.41  26 2.41  18 2.46  15 2.46  16 2.46  17 2.46

   3  0.463  0.658  0.365-  19 1.63  13 1.95  15 1.96  11 1.96  27 2.04
   4  0.037  0.842  0.365-  20 1.63  14 1.95  16 1.96  12 1.96  27 2.04
   5  0.658  0.037  0.365-  21 1.63  12 1.95  17 1.96  13 1.96  28 2.04
   6  0.842  0.463  0.365-  22 1.63  11 1.95  18 1.96  14 1.96  28 2.04
   7  0.537  0.342  0.635-  23 1.63  17 1.95  11 1.96  15 1.96  28 2.04
   8  0.963  0.158  0.635-  24 1.63  18 1.95  12 1.96  16 1.96  28 2.04
   9  0.342  0.963  0.635-  25 1.63  16 1.95  13 1.96  17 1.96  27 2.04
  10  0.158  0.537  0.635-  26 1.63  15 1.95  14 1.96  18 1.96  27 2.04
  11  0.644  0.543  0.528-   6 1.95   7 1.96   3 1.96   1 2.46
  12  0.856  0.957  0.528-   5 1.95   8 1.96   4 1.96   1 2.46
  13  0.543  0.856  0.528-   3 1.95   9 1.96   5 1.96   1 2.46
  14  0.957  0.644  0.528-   4 1.95  10 1.96   6 1.96   1 2.46
  15  0.356  0.457  0.472-  10 1.95   3 1.96   7 1.96   2 2.46
  16  0.144  0.043  0.472-   9 1.95   4 1.96   8 1.96   2 2.46
  17  0.457  0.144  0.472-   7 1.95   5 1.96   9 1.96   2 2.46
  18  0.043  0.356  0.472-   8 1.95   6 1.96  10 1.96   2 2.46
  19  0.498  0.677  0.044-   3 1.63   1 2.41
  20  0.002  0.823  0.044-   4 1.63   1 2.41
  21  0.677  0.002  0.044-   5 1.63   1 2.41
  22  0.823  0.498  0.044-   6 1.63   1 2.41
  23  0.502  0.323  0.956-   7 1.63   2 2.41
  24  0.998  0.177  0.956-   8 1.63   2 2.41
  25  0.323  0.998  0.956-   9 1.63   2 2.41
  26  0.177  0.502  0.956-  10 1.63   2 2.41
  27  0.250  0.750  0.500-   3 2.04   9 2.04   4 2.04  10 2.04
  28  0.750  0.250  0.500-   8 2.04   6 2.04   7 2.04   5 2.04

IMPORTANT INFORMATION: All symmetrisations will be switched off!
NOSYMM: (Re-)initialisation of all symmetry stuff for point group C_1.

                                     Primitive cell

  volume of cell :     343.0832

  direct lattice vectors                    reciprocal lattice vectors
     8.303064522  0.002755318  0.000000591     0.120437448  0.000035928 -0.000000006
    -0.002476854  8.302994270 -0.000017163    -0.000039967  0.120438467  0.000000250
     0.000000257 -0.000010336  4.976525897    -0.000000014  0.000000415  0.200943393

  length of vectors
     8.303064979  8.302994640  4.976525897     0.120437453  0.120438474  0.200943393

  position of ions in fractional coordinates (direct lattice)
     0.749970473  0.749990674  0.834826501
     0.249970055  0.249991480  0.165173777
     0.462524926  0.657689030  0.364895925
     0.037442196  0.842278592  0.364943615
     0.657710408  0.037417202  0.364869873
     0.842288851  0.462515416  0.364988196
     0.537441924  0.342278844  0.635056672
     0.962524516  0.157689557  0.635103499
     0.342290156  0.962516591  0.635011354
     0.157709973  0.537417135  0.635128881
     0.643776856  0.542597660  0.527910904
     0.856217190  0.957284591  0.527893414
     0.542693389  0.856175150  0.527881157
     0.957406808  0.643775634  0.527997119
     0.356217139  0.457284292  0.472106939
     0.143776732  0.042597573  0.472091779
     0.457407891  0.143775178  0.472000782
     0.042691932  0.356175828  0.472115161
     0.498354666  0.676705722  0.043858412
     0.001516983  0.823464999  0.043912213
     0.676589528  0.001697050  0.043777992
     0.823459555  0.498419666  0.043937720
     0.501516464  0.323465363  0.956089088
     0.998354190  0.176706809  0.956142996
     0.323462840  0.998424128  0.956064965
     0.176588489  0.501697658  0.956220661
     0.250048171  0.749984146  0.499980095
     0.750047700  0.249984031  0.500020310

  ion indices of the primitive-cell ions
   primitive index   ion index
                 1           1
                 2           2
                 3           3
                 4           4
                 5           5
                 6           6
                 7           7
                 8           8
                 9           9
                10          10
                11          11
                12          12
                13          13
                14          14
                15          15
                16          16
                17          17
                18          18
                19          19
                20          20
                21          21
                22          22
                23          23
                24          24
                25          25
                26          26
                27          27
                28          28

 KPOINTS: K-points file

Automatic generation of k-mesh.
Space group operators:
 irot       det(A)        alpha          n_x          n_y          n_z        tau_x        tau_y        tau_z
    1     1.000000     0.000000     1.000000     0.000000     0.000000     0.000000     0.000000     0.000000

 Subroutine IBZKPT returns following result:

 Found     58 irreducible k-points:

 Following reciprocal coordinates:
            Coordinates               Weight
  0.000000  0.000000  0.000000      1.000000
  0.250000  0.000000  0.000000      2.000000
  0.000000 -0.250000 -0.000000      2.000000
  0.500000 -0.000000 -0.000000      1.000000
 -0.000000  0.500000  0.000000      1.000000
  0.250000  0.250000 -0.000000      2.000000
  0.500000  0.250000  0.000000      2.000000
 -0.250000  0.500000 -0.000000      2.000000
 -0.250000  0.250000 -0.000000      2.000000
  0.500000  0.500000 -0.000000      1.000000
  0.000000 -0.000000  0.142857      2.000000
  0.250000  0.000000  0.142857      2.000000
 -0.250000  0.000000  0.142857      2.000000
  0.000000 -0.250000 -0.142857      2.000000
  0.000000  0.250000 -0.142857      2.000000
  0.500000 -0.000000  0.142857      2.000000
  0.000000  0.500000 -0.142857      2.000000
  0.250000  0.250000  0.142857      2.000000
 -0.250000 -0.250000  0.142857      2.000000
  0.500000  0.250000  0.142857      2.000000
  0.500000 -0.250000  0.142857      2.000000
 -0.250000  0.500000 -0.142857      2.000000
  0.250000  0.500000 -0.142857      2.000000
 -0.250000  0.250000  0.142857      2.000000
  0.250000 -0.250000  0.142857      2.000000
  0.500000  0.500000  0.142857      2.000000
  0.000000 -0.000000  0.285714      2.000000
  0.250000 -0.000000  0.285714      2.000000
 -0.250000 -0.000000  0.285714      2.000000
 -0.000000 -0.250000 -0.285714      2.000000
 -0.000000  0.250000 -0.285714      2.000000
  0.500000  0.000000  0.285714      2.000000
  0.000000  0.500000 -0.285714      2.000000
  0.250000  0.250000  0.285714      2.000000
 -0.250000 -0.250000  0.285714      2.000000
  0.500000  0.250000  0.285714      2.000000
  0.500000 -0.250000  0.285714      2.000000
 -0.250000  0.500000 -0.285714      2.000000
  0.250000  0.500000 -0.285714      2.000000
 -0.250000  0.250000  0.285714      2.000000
  0.250000 -0.250000  0.285714      2.000000
  0.500000  0.500000  0.285714      2.000000
 -0.000000  0.000000  0.428571      2.000000
  0.250000  0.000000  0.428571      2.000000
 -0.250000 -0.000000  0.428571      2.000000
 -0.000000 -0.250000 -0.428571      2.000000
  0.000000  0.250000 -0.428571      2.000000
  0.500000 -0.000000  0.428571      2.000000
 -0.000000  0.500000 -0.428571      2.000000
  0.250000  0.250000  0.428571      2.000000
 -0.250000 -0.250000  0.428571      2.000000
  0.500000  0.250000  0.428571      2.000000
  0.500000 -0.250000  0.428571      2.000000
 -0.250000  0.500000 -0.428571      2.000000
  0.250000  0.500000 -0.428571      2.000000
 -0.250000  0.250000  0.428571      2.000000
  0.250000 -0.250000  0.428571      2.000000
  0.500000  0.500000  0.428571      2.000000

 Following cartesian coordinates:
            Coordinates               Weight
  0.000000  0.000000  0.000000      1.000000
  0.030109  0.000009 -0.000000      2.000000
  0.000010 -0.030110 -0.000000      2.000000
  0.060219  0.000018 -0.000000      1.000000
 -0.000020  0.060219  0.000000      1.000000
  0.030099  0.030119  0.000000      2.000000
  0.060209  0.030128  0.000000      2.000000
 -0.030129  0.060210  0.000000      2.000000
 -0.030119  0.030101  0.000000      2.000000
  0.060199  0.060237  0.000000      1.000000
[...]

 E-fermi :   2.7196     XC(G=0): -11.1305     alpha+bet :-10.3277

[...]

 k-point     1 :       0.0000    0.0000    0.0000
  band No.  band energies     occupation
      1     -38.5095      1.00000
      2     -38.4905      1.00000
      3     -38.4892      1.00000
      4     -38.4881      1.00000
      5     -38.4717      1.00000
      6     -38.4677      1.00000
      7     -38.4672      1.00000
      8     -38.4497      1.00000
      9     -38.1631      1.00000
     10     -38.1616      1.00000
     11     -37.9752      1.00000
     12     -37.9713      1.00000
     13     -37.9452      1.00000
     14     -37.9441      1.00000
     15     -37.9367      1.00000
     16     -37.9317      1.00000
     17     -37.9230      1.00000
     18     -37.9206      1.00000
     19     -37.8717      1.00000
     20     -37.8685      1.00000
     21     -37.8649      1.00000
     22     -37.8452      1.00000
     23     -37.8410      1.00000
     24     -37.8325      1.00000
     25     -37.8305      1.00000
     26     -37.8136      1.00000
     27     -18.6020      1.00000
     28     -18.5703      1.00000
     29     -18.5701      1.00000
     30     -18.5454      1.00000
     31     -18.5177      1.00000
     32     -18.5175      1.00000
     33     -17.8414      1.00000
     34     -17.4335      1.00000
     35     -17.0346      1.00000
     36     -17.0334      1.00000
     37     -16.9544      1.00000
     38     -16.8582      1.00000
     39     -16.7634      1.00000
     40     -16.7149      1.00000
     41     -16.6812      1.00000
     42     -16.6800      1.00000
     43     -15.9789      1.00000
     44     -15.8791      1.00000
     45     -15.8526      1.00000
     46     -15.8522      1.00000
     47     -15.8428      1.00000
     48     -15.7787      1.00000
     49     -15.7457      1.00000
     50     -15.7455      1.00000
     51      -3.8459      1.00000
     52      -3.8453      1.00000
     53      -3.7526      1.00000
     54      -3.7517      1.00000
     55      -3.7040      1.00000
     56      -3.5854      1.00000
     57      -3.4686      1.00000
     58      -3.1710      1.00000
     59      -3.1699      1.00000
     60      -2.8489      1.00000
[...]
    124       5.2170      0.00000
    125       5.2200      0.00000
    126       5.2662      0.00000
    127       5.2973      0.00000
    128       5.4839      0.00000
    129       5.4855      0.00000
    130       5.5666      0.00000
    131       5.6374      0.00000
    132       5.7023      0.00000
    133       5.7030      0.00000
    134       5.8590      0.00000
    135       5.8598      0.00000
    136       6.2341      0.00000
    137       6.5708      0.00000
    138       6.7523      0.00000

[...]

 spin component 2

[...]

 k-point    58 :       0.5000    0.5000    0.4286
  band No.  band energies     occupation
      1     -38.1624      1.00000
      2     -38.1623      1.00000
      3     -37.7874      1.00000
      4     -37.7872      1.00000
      5     -37.7734      1.00000
      6     -37.7730      1.00000
      7     -37.7515      1.00000
      8     -37.7513      1.00000
      9     -37.7425      1.00000
     10     -37.7424      1.00000
     11     -36.4813      1.00000
     12     -36.4810      1.00000
     13     -36.4469      1.00000
     14     -36.4465      1.00000
     15     -36.3760      1.00000
     16     -36.3757      1.00000
     17     -36.3736      1.00000
     18     -36.3735      1.00000
     19     -36.3426      1.00000
     20     -36.3425      1.00000
     21     -36.3356      1.00000
     22     -36.3350      1.00000
     23     -36.3008      1.00000
     24     -36.3006      1.00000
     25     -36.2854      1.00000
     26     -36.2854      1.00000
     27     -18.6099      1.00000
     28     -18.6099      1.00000
     29     -18.5324      1.00000
     30     -18.5304      1.00000
     31     -18.5119      1.00000
     32     -18.5107      1.00000
     33     -17.5522      1.00000
     34     -17.5456      1.00000
     35     -17.0729      1.00000
     36     -17.0718      1.00000
     37     -16.8555      1.00000
     38     -16.8466      1.00000
     39     -16.6764      1.00000
     40     -16.6755      1.00000
     41     -16.5872      1.00000
     42     -16.5853      1.00000
     43     -16.1383      1.00000
     44     -16.1382      1.00000
     45     -16.0523      1.00000
     46     -16.0515      1.00000
     47     -16.0095      1.00000
     48     -16.0094      1.00000
     49     -15.8176      1.00000
     50     -15.8171      1.00000
     51      -3.9214      1.00000
     52      -3.9212      1.00000
     53      -3.4324      1.00000
     54      -3.4318      1.00000
     55      -3.2485      1.00000
     56      -3.2449      1.00000
     57      -3.0106      1.00000
     58      -3.0088      1.00000
     59      -2.9738      1.00000
     60      -2.9732      1.00000
[...]
    124       6.3053      0.00000
    125       6.3054      0.00000
    126       6.3256      0.00000
    127       6.5479      0.00000
    128       6.5641      0.00000
    129       6.6019      0.00000
    130       6.6023      0.00000
    131       6.6247      0.00000
    132       6.6253      0.00000
    133       6.6933      0.00000
    134       6.7292      0.00000
    135       6.7296      0.00000
    136       6.7818      0.00000
    137       7.1630      0.00000
    138       7.1731      0.00000

 soft charge-density along one line, spin component           1
         0         1         2         3         4         5         6         7         8         9
 total charge-density along one line

 soft charge-density along one line, spin component           2
         0         1         2         3         4         5         6         7         8         9
 total charge-density along one line

------------------------ aborting loop because EDIFF is reached ----------------------------------------

 total charge

# of ion       s       p       d       tot
    1        2.019   5.868   0.211   8.098
    2        2.019   5.868   0.211   8.098
    3        0.337   6.341   3.056   9.735
    4        0.337   6.342   3.057   9.735
    5        0.337   6.341   3.057   9.735
    6        0.337   6.341   3.056   9.735
    7        0.337   6.342   3.057   9.735
    8        0.337   6.341   3.056   9.735
    9        0.337   6.341   3.056   9.735
   10        0.337   6.341   3.057   9.735
   11        1.572   3.544   0.000   5.115
   12        1.572   3.544   0.000   5.115
   13        1.572   3.544   0.000   5.115
   14        1.572   3.544   0.000   5.115
   15        1.572   3.544   0.000   5.115
   16        1.572   3.544   0.000   5.115
   17        1.572   3.544   0.000   5.115
   18        1.572   3.544   0.000   5.115
   19        1.605   3.429   0.000   5.034
   20        1.605   3.429   0.000   5.034
   21        1.605   3.429   0.000   5.034
   22        1.605   3.429   0.000   5.034
   23        1.605   3.429   0.000   5.034
   24        1.605   3.429   0.000   5.034
   25        1.605   3.428   0.000   5.034
   26        1.605   3.429   0.000   5.034
   27        1.566   3.535   0.000   5.101
   28        1.566   3.535   0.000   5.101
tot         35.281 125.315  24.875 185.471

 magnetization (x)

[...]

  FORCE on cell =-STRESS in cart. coord.  units (eV):
  Direction    XX          YY          ZZ          XY          YZ          ZX
  Alpha Z  1052.90156  1052.90156  1052.90156
  Ewald   -4129.04282 -4129.71994 -5553.73620    -0.36182     0.01175     0.00064
  Hartree  2488.34666  2488.06656  1071.79922    -0.24333     0.00706     0.00017
  E(xc)   -1187.97719 -1187.97956 -1188.33588     0.00007     0.00002    -0.00001
  Local   -1520.97154 -1520.01552  1437.14237     0.62198    -0.01888    -0.00066
  n-local -1042.43580 -1042.40593 -1030.90744    -0.00394    -0.00003     0.00002
  augment   513.32106   513.31565   472.13443    -0.01225     0.00003    -0.00005
  Kinetic  3825.90984  3825.87556  3739.22072    -0.01021     0.00032    -0.00018
  Fock        0.00000     0.00000     0.00000     0.00000     0.00000     0.00000
  Total       0.05177     0.03838     0.21879    -0.00951     0.00028    -0.00006
  in kB       0.24176     0.17925     1.02172    -0.04442     0.00131    -0.00028

 VOLUME and BASIS-vectors are now :
  energy-cutoff  :      520.00
  volume of cell :      343.08
      direct lattice vectors                 reciprocal lattice vectors
     8.303064522  0.002755318  0.000000591     0.120437448  0.000035928 -0.000000006
    -0.002476854  8.302994270 -0.000017163    -0.000039967  0.120438467  0.000000250
     0.000000257 -0.000010336  4.976525897    -0.000000014  0.000000415  0.200943393

  length of vectors
     8.303064979  8.302994640  4.976525897     0.120437453  0.120438474  0.200943393

 FORCES acting on ions
    electron-ion (+dipol)            ewald-force                    non-local-force                 convergence-correction
   -.728E-02 0.133E+00 -.106E+03   0.964E-02 -.130E+00 0.105E+03   -.734E-03 -.221E-02 0.770E+00   0.406E-05 -.603E-08 -.138E-03
   -.369E-02 0.135E+00 0.106E+03   0.610E-02 -.132E+00 -.105E+03   -.790E-03 -.213E-02 -.770E+00   0.116E-05 0.293E-05 0.135E-03
   0.220E+02 -.169E+02 0.811E+02   -.215E+02 0.163E+02 -.785E+02   -.349E+00 0.636E+00 -.309E+01   0.551E-04 -.284E-04 -.418E-03
   -.223E+02 0.174E+02 0.811E+02   0.219E+02 -.168E+02 -.785E+02   0.277E+00 -.628E+00 -.305E+01   -.641E-04 0.438E-04 -.428E-03
   -.173E+02 -.220E+02 0.811E+02   0.167E+02 0.216E+02 -.784E+02   0.602E+00 0.306E+00 -.306E+01   -.420E-04 -.649E-04 -.428E-03
   0.173E+02 0.220E+02 0.810E+02   -.166E+02 -.215E+02 -.784E+02   -.664E+00 -.330E+00 -.307E+01   0.240E-04 0.514E-04 -.406E-03
   -.223E+02 0.174E+02 -.811E+02   0.219E+02 -.168E+02 0.785E+02   0.277E+00 -.628E+00 0.305E+01   -.617E-04 0.430E-04 0.425E-03
   0.220E+02 -.169E+02 -.811E+02   -.215E+02 0.163E+02 0.785E+02   -.349E+00 0.636E+00 0.309E+01   0.496E-04 -.264E-04 0.409E-03
   0.173E+02 0.220E+02 -.810E+02   -.166E+02 -.215E+02 0.784E+02   -.664E+00 -.330E+00 0.307E+01   0.258E-04 0.514E-04 0.403E-03
   -.173E+02 -.220E+02 -.811E+02   0.167E+02 0.216E+02 0.784E+02   0.602E+00 0.306E+00 0.306E+01   -.383E-04 -.657E-04 0.418E-03
   -.469E+02 -.792E+02 -.631E+02   0.503E+02 0.858E+02 0.693E+02   -.342E+01 -.666E+01 -.619E+01   -.992E-04 -.175E-03 -.873E-04
   0.469E+02 0.790E+02 -.632E+02   -.504E+02 -.856E+02 0.694E+02   0.344E+01 0.664E+01 -.620E+01   0.106E-03 0.177E-03 -.847E-04
   -.791E+02 0.469E+02 -.632E+02   0.857E+02 -.503E+02 0.694E+02   -.665E+01 0.343E+01 -.620E+01   -.181E-03 0.110E-03 -.851E-04
   0.792E+02 -.468E+02 -.632E+02   -.859E+02 0.503E+02 0.694E+02   0.666E+01 -.343E+01 -.619E+01   0.177E-03 -.116E-03 -.853E-04
   0.469E+02 0.790E+02 0.632E+02   -.504E+02 -.856E+02 -.694E+02   0.344E+01 0.664E+01 0.620E+01   0.104E-03 0.178E-03 0.842E-04
   -.469E+02 -.792E+02 0.631E+02   0.503E+02 0.858E+02 -.693E+02   -.342E+01 -.666E+01 0.619E+01   -.103E-03 -.175E-03 0.848E-04
   0.792E+02 -.468E+02 0.632E+02   -.859E+02 0.503E+02 -.694E+02   0.666E+01 -.343E+01 0.619E+01   0.179E-03 -.113E-03 0.831E-04
   -.791E+02 0.469E+02 0.632E+02   0.857E+02 -.503E+02 -.694E+02   -.665E+01 0.343E+01 0.620E+01   -.184E-03 0.109E-03 0.850E-04
   0.101E+02 -.166E+02 0.223E+03   -.969E+01 0.176E+02 -.246E+03   -.396E+00 -.106E+01 0.235E+02   -.231E-03 -.718E-04 0.164E-03
   -.101E+02 0.165E+02 0.223E+03   0.967E+01 -.175E+02 -.246E+03   0.416E+00 0.103E+01 0.235E+02   0.227E-03 0.686E-04 0.159E-03
   -.166E+02 -.102E+02 0.223E+03   0.176E+02 0.985E+01 -.246E+03   -.104E+01 0.389E+00 0.235E+02   -.712E-04 0.230E-03 0.168E-03
   0.166E+02 0.100E+02 0.223E+03   -.176E+02 -.959E+01 -.246E+03   0.102E+01 -.413E+00 0.235E+02   0.695E-04 -.231E-03 0.173E-03
   -.101E+02 0.165E+02 -.223E+03   0.966E+01 -.175E+02 0.246E+03   0.416E+00 0.103E+01 -.235E+02   0.229E-03 0.711E-04 -.156E-03
   0.101E+02 -.166E+02 -.223E+03   -.969E+01 0.176E+02 0.246E+03   -.396E+00 -.106E+01 -.235E+02   -.230E-03 -.700E-04 -.165E-03
   0.166E+02 0.100E+02 -.223E+03   -.176E+02 -.960E+01 0.246E+03   0.102E+01 -.413E+00 -.235E+02   0.690E-04 -.230E-03 -.168E-03
   -.166E+02 -.102E+02 -.223E+03   0.176E+02 0.985E+01 0.246E+03   -.104E+01 0.389E+00 -.235E+02   -.697E-04 0.229E-03 -.166E-03
   0.186E+00 0.446E-01 0.765E-03   -.209E+00 -.547E-01 -.962E-03   0.270E-01 0.101E-01 -.458E-03   0.678E-07 0.298E-05 0.160E-05
   0.185E+00 0.460E-01 -.394E-02   -.208E+00 -.560E-01 0.431E-02   0.269E-01 0.100E-01 0.288E-03   0.147E-05 0.499E-05 -.200E-05
   0.147E+00 0.176E+00 -.122E-03   -.178E-13 0.480E-13 0.467E-13   -.148E+00 -.167E+00 0.130E-03   -.540E-04 0.665E-05 -.229E-04

 POSITION                                       TOTAL-FORCE (eV/Angst)
      6.22520      6.22923      4.15452         0.001681      0.000459     -0.008870
      2.07490      2.07636      0.82199         0.001669      0.000437      0.008847
      3.83875      5.46206      1.81590         0.002354      0.000199     -0.001869
      0.30880      6.99353      1.81614        -0.006762     -0.004591     -0.000642
      5.46092      0.31248      1.81578         0.003898     -0.001299     -0.000473
      6.99243      3.84258      1.81637         0.002655      0.004716     -0.006089
      4.46157      2.84341      3.16037        -0.006778     -0.004569      0.000946
      7.99151      1.31194      3.16061         0.002446      0.000318      0.002280
      2.83967      7.99271      3.16013         0.002578      0.004764      0.006663
      1.30815      4.46260      3.16073         0.003805     -0.001206      0.000496
      5.34398      4.50695      2.62715         0.001190     -0.006512      0.009022
      7.10686      7.95068      2.62706        -0.002749      0.011352      0.009681
      4.50390      7.11031      2.62700        -0.011989     -0.001388      0.008876
      7.94782      5.34790      2.62758         0.007357     -0.000442      0.008877
      2.95656      3.79781      2.34944        -0.002751      0.011345     -0.009701
      1.19368      0.35408      2.34938         0.001311     -0.006497     -0.009064
      3.79753      1.19502      2.34892         0.007229     -0.000406     -0.008798
      0.35359      2.95744      2.34949        -0.011852     -0.001557     -0.008708
      4.13619      5.62006      0.21825        -0.003591     -0.006810     -0.000107
      0.01056      6.83723      0.21852         0.003629      0.005902     -0.002859
      5.61776      0.01595      0.21786        -0.006894      0.003018      0.000749
      6.83600      4.14064      0.21865         0.005610     -0.004166      0.000985
      4.16332      2.68710      4.75800         0.003678      0.005933      0.002545
      8.28896      1.46994      4.75827        -0.003651     -0.006863     -0.000305
      2.68326      8.29079      4.75787         0.005605     -0.004439     -0.001732
      1.46498      4.16607      4.75865        -0.006888      0.003006     -0.000758
      2.07431      6.22780      2.48815         0.003599     -0.000346     -0.000653
      6.22708      2.07768      2.48836         0.003611     -0.000359      0.000660
    total drift:                               -0.001409      0.009660     -0.000015

  FREE ENERGIE OF THE ION-ELECTRON SYSTEM (eV)
  free  energy   TOTEN  =      -341.43289222 eV

  energy  without entropy=     -341.43289222  energy(sigma->0) =     -341.43289222

 reached required accuracy - stopping structural energy minimisation

 total charge

[...]

 magnetization (x)

# of ion       s       p       d       tot
    1        0.001  -0.000   0.000   0.000
    2        0.001  -0.000   0.000   0.000
    3        0.010   0.005   1.043   1.058
    4        0.010   0.005   1.042   1.058
    5        0.010   0.005   1.043   1.058
    6        0.010   0.005   1.042   1.058
    7        0.010   0.005   1.042   1.058
    8        0.010   0.005   1.043   1.058
    9        0.010   0.005   1.042   1.058
   10        0.010   0.005   1.043   1.058
   11       -0.000   0.008   0.000   0.008
   12       -0.000   0.008   0.000   0.008
   13       -0.000   0.008   0.000   0.008
   14       -0.000   0.008   0.000   0.008
   15       -0.000   0.008   0.000   0.008
   16       -0.000   0.008   0.000   0.008
   17       -0.000   0.008   0.000   0.008
   18       -0.000   0.008   0.000   0.008
   19       -0.002  -0.109   0.000  -0.111
   20       -0.002  -0.109   0.000  -0.111
   21       -0.002  -0.109   0.000  -0.111
   22       -0.002  -0.109   0.000  -0.111
   23       -0.002  -0.109   0.000  -0.111
   24       -0.002  -0.109   0.000  -0.111
   25       -0.002  -0.109   0.000  -0.111
   26       -0.002  -0.109   0.000  -0.111
   27       -0.000   0.001   0.000   0.001
   28       -0.000   0.001   0.000   0.001
tot          0.065  -0.765   8.340   7.640