 vasp.6.1.2 22Jul20 (build Apr 14 2021 21:39:43) complex

 executed on             LinuxIFC date 2022.04.19  21:35:03

 INCAR:
 POTCAR:    PAW_PBE Ca_sv 06Sep2000
 POTCAR:    PAW_PBE Mn_pv 02Aug2007
 POTCAR:    PAW_PBE S 06Sep2000
 POTCAR:    PAW_PBE O 08Apr2002
 POTCAR:    PAW_PBE Ca_sv 06Sep2000
   VRHFIN =Ca: 3s3p4s

   TITEL  = PAW_PBE Ca_sv 06Sep2000
   POMASS =   40.078; ZVAL   =   10.000    mass and valenz
   ENMAX  =  266.622; ENMIN  =  199.967 eV

 POTCAR:    PAW_PBE Mn_pv 02Aug2007
   VRHFIN =Mn: 3p4s3d

   TITEL  = PAW_PBE Mn_pv 02Aug2007
   POMASS =   54.938; ZVAL   =   13.000    mass and valenz
   ENMAX  =  269.864; ENMIN  =  202.398 eV

 POTCAR:    PAW_PBE S 06Sep2000
   VRHFIN =S : s2p4

   TITEL  = PAW_PBE S 06Sep2000
   POMASS =   32.066; ZVAL   =    6.000    mass and valenz
   ENMAX  =  258.689; ENMIN  =  194.016 eV

 POTCAR:    PAW_PBE O 08Apr2002
   VRHFIN =O: s2p4

   TITEL  = PAW_PBE O 08Apr2002
   POMASS =   16.000; ZVAL   =    6.000    mass and valenz
   ENMAX  =  400.000; ENMIN  =  300.000 eV

 Optimization of the real space projectors (new method)

 maximal supplied QI-value         = 16.25
 optimisation between [QCUT,QGAM] = [ 11.54, 23.24] = [ 37.28,151.24] Ry
 Optimized for a Real-space Cutoff    1.58 Angstroem

   l    n(q)    QCUT    max X(q) W(low)/X(q) W(high)/X(q)  e(spline)
   0     11    11.539    11.817    0.25E-04    0.22E-05    0.26E-07
   0     11    11.539     8.461    0.39E-04    0.49E-05    0.55E-07
   1     11    11.539     3.957    0.21E-05    0.44E-05    0.32E-07
   1     11    11.539     4.314    0.56E-04    0.44E-04    0.19E-06
   2     10    11.539    14.565    0.25E-03    0.21E-04    0.75E-06
   2     10    11.539    14.552    0.23E-03    0.22E-04    0.72E-06
 Optimization of the real space projectors (new method)

[...]

   l    n(q)    QCUT    max X(q) W(low)/X(q) W(high)/X(q)  e(spline)
   0      8    11.508   187.594    0.96E-04    0.18E-03    0.54E-07
   0      8    11.508   164.243    0.96E-04    0.18E-03    0.54E-07
   1      8    11.508    67.533    0.18E-03    0.65E-04    0.94E-07
   1      8    11.508    50.729    0.18E-03    0.63E-04    0.92E-07
 Optimization of the real space projectors (new method)

 maximal supplied QI-value         = 24.76
 optimisation between [QCUT,QGAM] = [ 11.64, 23.27] = [ 37.91,151.63] Ry
 Optimized for a Real-space Cutoff    1.14 Angstroem

   l    n(q)    QCUT    max X(q) W(low)/X(q) W(high)/X(q)  e(spline)
   0      8    11.635    20.381    0.10E-03    0.33E-03    0.24E-06
   0      8    11.635    15.268    0.11E-03    0.35E-03    0.26E-06
   1      7    11.635     5.964    0.24E-03    0.31E-03    0.30E-06
   1      7    11.635     5.382    0.22E-03    0.25E-03    0.26E-06
  PAW_PBE Ca_sv 06Sep2000               :
  PAW_PBE Mn_pv 02Aug2007               :
  PAW_PBE S 06Sep2000                   :
  PAW_PBE O 08Apr2002                   :

 POSCAR: Ca2 Mn4 S6 O24
  positions in direct lattice
  velocities in cartesian coordinates

 METAGGA = SCAN     LMAXTAU =  6    LMIXTAU =  F

 ion  position               nearest neighbor table
   1  0.497  0.497  0.497-  20 2.38  24 2.38  22 2.38  13 2.38  17 2.38  15 2.38
   2  0.997  0.997  0.997-  23 2.38  19 2.38  21 2.38  16 2.38  18 2.38  14 2.38
   3  0.648  0.648  0.648-  30 2.09  26 2.09  28 2.09  13 2.22  17 2.22  15 2.22
   4  0.148  0.148  0.148-  25 2.09  27 2.09  29 2.09  16 2.22  18 2.22  14 2.22
   5  0.846  0.846  0.846-  36 2.09  32 2.09  34 2.09  19 2.22  23 2.22  21 2.22
   6  0.346  0.346  0.346-  35 2.09  31 2.09  33 2.09  20 2.22  22 2.22  24 2.22
   7  0.945  0.247  0.550-  25 1.46  31 1.46  23 1.48  15 1.48
   8  0.445  0.050  0.747-  26 1.46  32 1.46  22 1.48  18 1.48
   9  0.550  0.945  0.247-  27 1.46  33 1.46  19 1.48  17 1.48
  10  0.747  0.445  0.050-  28 1.46  34 1.46  24 1.48  14 1.48
  11  0.247  0.550  0.945-  29 1.46  35 1.46  21 1.48  13 1.48
  12  0.050  0.747  0.445-  30 1.46  36 1.46  20 1.48  16 1.48
  13  0.403  0.568  0.764-  11 1.48   3 2.22   1 2.38
  14  0.903  0.264  0.068-  10 1.48   4 2.22   2 2.38
  15  0.764  0.403  0.568-   7 1.48   3 2.22   1 2.38
  16  0.068  0.903  0.264-  12 1.48   4 2.22   2 2.38
  17  0.568  0.764  0.403-   9 1.48   3 2.22   1 2.38
  18  0.264  0.068  0.903-   8 1.48   4 2.22   2 2.38
  19  0.731  0.927  0.092-   9 1.48   5 2.22   2 2.38
  20  0.231  0.592  0.427-  12 1.48   6 2.22   1 2.38
  21  0.092  0.731  0.927-  11 1.48   5 2.22   2 2.38
  22  0.427  0.231  0.592-   8 1.48   6 2.22   1 2.38
  23  0.927  0.092  0.731-   7 1.48   5 2.22   2 2.38
  24  0.592  0.427  0.231-  10 1.48   6 2.22   1 2.38
  25  0.984  0.191  0.404-   7 1.46   4 2.09
  26  0.484  0.904  0.691-   8 1.46   3 2.09
  27  0.404  0.984  0.191-   9 1.46   4 2.09
  28  0.691  0.484  0.904-  10 1.46   3 2.09
  29  0.191  0.404  0.984-  11 1.46   4 2.09
  30  0.904  0.691  0.484-  12 1.46   3 2.09
  31  0.091  0.305  0.512-   7 1.46   6 2.09
  32  0.591  0.012  0.805-   8 1.46   5 2.09
  33  0.512  0.091  0.305-   9 1.46   6 2.09
  34  0.805  0.591  0.012-  10 1.46   5 2.09
  35  0.305  0.512  0.091-  11 1.46   6 2.09
  36  0.012  0.805  0.591-  12 1.46   5 2.09

IMPORTANT INFORMATION: All symmetrisations will be switched off!
NOSYMM: (Re-)initialisation of all symmetry stuff for point group C_1.

                                     Primitive cell

  volume of cell :     489.7956

  direct lattice vectors                    reciprocal lattice vectors
     7.709428486  0.097809726  4.502202565     0.131186509 -0.046682170 -0.001511935
     2.630822697  7.247336831  4.502201283    -0.000883545  0.139241772 -0.001512055
     0.137686662  0.097810725  8.926718836    -0.065718474 -0.046682539  0.113548397

  length of vectors
     8.928307917  8.928322105  8.928316399     0.139253047  0.139252785  0.139253063

  position of ions in fractional coordinates (direct lattice)
     0.497448785  0.497448067  0.497448613
     0.997447781  0.997449026  0.997448109
     0.648235959  0.648238489  0.648234841
     0.148235735  0.148236349  0.148236703
     0.846339992  0.846340719  0.846340226
     0.346341332  0.346339657  0.346340204
     0.944994506  0.247491638  0.550310279
     0.444994210  0.050308879  0.747491399
     0.550308149  0.944994288  0.247490653
     0.747490792  0.444994395  0.050311535
     0.247491336  0.550309343  0.944992783
     0.050309708  0.747490269  0.444992884
     0.402545473  0.567885922  0.763856332
     0.902539311  0.263860713  0.067887095
     0.763859363  0.402542890  0.567885692
     0.067888028  0.902545391  0.263853973
     0.567887053  0.763857513  0.402542398
     0.263857231  0.067887458  0.902543270
     0.731350256  0.927029801  0.092435745
     0.231356641  0.592437837  0.427022824
     0.092438982  0.731352875  0.927025063
     0.427028531  0.231350939  0.592437449
     0.927025365  0.092438262  0.731354255
     0.592440731  0.427024493  0.231354087
     0.983789305  0.190540015  0.404166104
     0.483784111  0.904165297  0.690542357
     0.404164660  0.983784992  0.190541647
     0.690538675  0.483789311  0.904169314
     0.190542358  0.404166524  0.983781080
     0.904165432  0.690541371  0.483780604
     0.090630772  0.304662270  0.512493275
     0.590628526  0.012489443  0.804665167
     0.512488829  0.090626858  0.304666867
     0.804660500  0.590629072  0.012495068
     0.304663980  0.512487357  0.090629841
     0.012487599  0.804662277  0.590632264

  ion indices of the primitive-cell ions
   primitive index   ion index
                 1           1
                 2           2
                 3           3
                 4           4
                 5           5
                 6           6
                 7           7
                 8           8
                 9           9
                10          10
                11          11
                12          12
                13          13
                14          14
                15          15
                16          16
                17          17
                18          18
                19          19
                20          20
                21          21
                22          22
                23          23
                24          24
                25          25
                26          26
                27          27
                28          28
                29          29
                30          30
                31          31
                32          32
                33          33
                34          34
                35          35
                36          36

 KPOINTS: Fully automatic kpoint scheme

Automatic generation of k-mesh.
 generate k-points for:    4    4    4
Space group operators:
 irot       det(A)        alpha          n_x          n_y          n_z        tau_x        tau_y        tau_z
    1     1.000000     0.000000     1.000000     0.000000     0.000000     0.000000     0.000000     0.000000

 Subroutine IBZKPT returns following result:

 Found     36 irreducible k-points:

 Following reciprocal coordinates:
            Coordinates               Weight
  0.000000  0.000000  0.000000      1.000000
  0.250000  0.000000 -0.000000      2.000000
 -0.000000  0.250000 -0.000000      2.000000
  0.000000 -0.000000  0.250000      2.000000
  0.500000  0.000000 -0.000000      1.000000
 -0.000000  0.500000 -0.000000      1.000000
  0.000000 -0.000000  0.500000      1.000000
  0.250000  0.250000 -0.000000      2.000000
 -0.250000  0.000000 -0.250000      2.000000
  0.000000  0.250000  0.250000      2.000000
  0.500000  0.250000  0.000000      2.000000
  0.500000  0.000000 -0.250000      2.000000
  0.000000  0.500000  0.250000      2.000000
 -0.250000  0.500000 -0.000000      2.000000
  0.250000 -0.000000  0.500000      2.000000
  0.000000 -0.250000  0.500000      2.000000
 -0.250000  0.250000  0.000000      2.000000
  0.250000  0.000000 -0.250000      2.000000
  0.000000 -0.250000  0.250000      2.000000
  0.500000  0.500000 -0.000000      1.000000
  0.500000 -0.000000  0.500000      1.000000
 -0.000000  0.500000  0.500000      1.000000
  0.250000  0.250000  0.250000      2.000000
  0.500000  0.250000  0.250000      2.000000
  0.250000  0.500000  0.250000      2.000000
  0.250000  0.250000  0.500000      2.000000
 -0.250000  0.250000  0.250000      2.000000
  0.250000 -0.250000  0.250000      2.000000
  0.250000  0.250000 -0.250000      2.000000
  0.500000  0.500000  0.250000      2.000000
  0.500000 -0.250000  0.500000      2.000000
  0.250000  0.500000  0.500000      2.000000
 -0.250000  0.500000  0.250000      2.000000
  0.250000 -0.250000  0.500000      2.000000
  0.500000  0.250000 -0.250000      2.000000
  0.500000  0.500000  0.500000      1.000000

 Following cartesian coordinates:
            Coordinates               Weight
  0.000000  0.000000  0.000000      1.000000
  0.032797 -0.011671 -0.000378      2.000000
 -0.000221  0.034810 -0.000378      2.000000
 -0.016430 -0.011671  0.028387      2.000000
  0.065593 -0.023341 -0.000756      1.000000
 -0.000442  0.069621 -0.000756      1.000000
 -0.032859 -0.023341  0.056774      1.000000
  0.032576  0.023140 -0.000756      2.000000
[...]
     31     -19.5561      1.00000
     32     -19.5365      1.00000
     33     -19.5186      1.00000
     34     -19.5185      1.00000
     35     -19.4792      1.00000
     36     -19.4792      1.00000
     37     -19.4273      1.00000
     38     -19.4273      1.00000
     39     -19.1185      1.00000
     40     -19.1185      1.00000
     41     -19.0296      1.00000
     42     -18.9615      1.00000
     43     -18.9615      1.00000
     44     -18.7983      1.00000
     45      -9.5400      1.00000
     46      -8.7855      1.00000
     47      -8.5790      1.00000
     48      -8.5789      1.00000
     49      -8.4630      1.00000
     50      -8.4629      1.00000
     51      -6.9731      1.00000
     52      -6.8707      1.00000
     53      -6.4394      1.00000
     54      -6.3407      1.00000
     55      -6.2464      1.00000
     56      -6.2464      1.00000
     57      -6.2132      1.00000
     58      -6.2132      1.00000
     59      -6.2094      1.00000
     60      -6.1003      1.00000
[...]
    158      10.1623      0.00000
    159      10.1748      0.00000
    160      10.2915      0.00000
    161      10.2969      0.00000
    162      10.4029      0.00000
    163      10.7170      0.00000
    164      10.8182      0.00000
    165      10.9047      0.00000
    166      10.9190      0.00000
    167      10.9484      0.00000
    168      11.1074      0.00000
    169      11.3168      0.00000
    170      11.3926      0.00000
    171      11.4286      0.00000
    172      11.8392      0.00000

[...]

 spin component 2

[...]

 k-point    36 :       0.5000    0.5000    0.5000
  band No.  band energies     occupation
      1     -42.6648      1.00000
      2     -42.6648      1.00000
      3     -42.6594      1.00000
      4     -42.6593      1.00000
      5     -42.6241      1.00000
      6     -42.6241      1.00000
      7     -42.6241      1.00000
      8     -42.6240      1.00000
      9     -42.6198      1.00000
     10     -42.6197      1.00000
     11     -42.6197      1.00000
     12     -42.6197      1.00000
     13     -39.3149      1.00000
     14     -39.3149      1.00000
     15     -23.8190      1.00000
     16     -23.8190      1.00000
     17     -23.7728      1.00000
     18     -23.7727      1.00000
     19     -23.7726      1.00000
     20     -23.7726      1.00000
     21     -20.0597      1.00000
     22     -20.0597      1.00000
     23     -19.8081      1.00000
     24     -19.8081      1.00000
     25     -19.8080      1.00000
     26     -19.8080      1.00000
     27     -19.6164      1.00000
     28     -19.6164      1.00000
     29     -19.5102      1.00000
     30     -19.5102      1.00000
     31     -19.5026      1.00000
     32     -19.5025      1.00000
     33     -19.5025      1.00000
     34     -19.5024      1.00000
     35     -19.3995      1.00000
     36     -19.3995      1.00000
     37     -19.3994      1.00000
     38     -19.3994      1.00000
     39     -18.9934      1.00000
     40     -18.9934      1.00000
     41     -18.9934      1.00000
     42     -18.9933      1.00000
     43     -18.8474      1.00000
     44     -18.8474      1.00000
     45      -9.0556      1.00000
     46      -9.0556      1.00000
     47      -8.3818      1.00000
     48      -8.3817      1.00000
     49      -8.3817      1.00000
     50      -8.3816      1.00000
     51      -6.7132      1.00000
     52      -6.7132      1.00000
     53      -6.3573      1.00000
     54      -6.3572      1.00000
     55      -6.0023      1.00000
     56      -6.0023      1.00000
     57      -6.0023      1.00000
     58      -6.0022      1.00000
     59      -5.9615      1.00000
     60      -5.9615      1.00000
[...]
    158      10.5060      0.00000
    159      10.7548      0.00000
    160      10.7579      0.00000
    161      10.7632      0.00000
    162      10.7859      0.00000
    163      11.0144      0.00000
    164      11.0260      0.00000
    165      11.0521      0.00000
    166      11.0695      0.00000
    167      11.3517      0.00000
    168      11.3864      0.00000
    169      11.6401      0.00000
    170      11.7104      0.00000
    171      11.9216      0.00000
    172      12.1844      0.00000

 soft charge-density along one line, spin component           1
         0         1         2         3         4         5         6         7         8         9
 total charge-density along one line

 soft charge-density along one line, spin component           2
         0         1         2         3         4         5         6         7         8         9
 total charge-density along one line

------------------------ aborting loop because EDIFF is reached ----------------------------------------

 total charge

# of ion       s       p       d       tot
    1        2.016   5.865   0.177   8.058
    2        2.016   5.865   0.177   8.058
    3        0.169   6.148   4.935  11.252
    4        0.169   6.148   4.935  11.252
    5        0.169   6.148   4.934  11.252
    6        0.169   6.148   4.934  11.252
    7        1.221   2.296   0.000   3.517
    8        1.221   2.296   0.000   3.517
    9        1.221   2.296   0.000   3.517
   10        1.221   2.296   0.000   3.517
   11        1.221   2.296   0.000   3.517
   12        1.221   2.296   0.000   3.517
   13        1.583   3.643   0.000   5.226
   14        1.583   3.643   0.000   5.226
   15        1.583   3.643   0.000   5.226
   16        1.583   3.643   0.000   5.226
   17        1.583   3.643   0.000   5.226
   18        1.583   3.643   0.000   5.226
   19        1.583   3.643   0.000   5.226
   20        1.583   3.643   0.000   5.226
   21        1.583   3.643   0.000   5.226
   22        1.583   3.643   0.000   5.226
   23        1.583   3.643   0.000   5.226
   24        1.583   3.643   0.000   5.226
   25        1.586   3.647   0.000   5.233
   26        1.586   3.647   0.000   5.233
   27        1.586   3.647   0.000   5.233
   28        1.586   3.647   0.000   5.233
   29        1.586   3.647   0.000   5.233
   30        1.586   3.647   0.000   5.233
   31        1.586   3.647   0.000   5.232
   32        1.586   3.647   0.000   5.232
   33        1.586   3.647   0.000   5.232
   34        1.586   3.647   0.000   5.232
   35        1.586   3.647   0.000   5.232
   36        1.586   3.647   0.000   5.232
tot         50.060 137.576  20.092 207.729

 magnetization (x)

[...]

  FORCE on cell =-STRESS in cart. coord.  units (eV):
  Direction    XX          YY          ZZ          XY          YZ          ZX
  Alpha Z   685.15975   685.15975   685.15975
  Ewald   -4504.15614 -4660.01920 -3897.50626   223.43277   382.37593   538.28785
  Hartree  2657.29647  2566.29512  3011.47356   130.45394   223.24296   314.27207
  E(xc)   -1345.44420 -1345.36159 -1345.76609    -0.11851    -0.20284    -0.28554
  Local   -2149.89908 -1907.09875 -3094.90221  -348.06051  -595.64503  -838.51974
  n-local  -435.34600  -436.12053  -432.33255     1.11005     1.89878     2.67378
  augment   558.50191   558.75122   557.53086    -0.35753    -0.61182    -0.86131
  Kinetic  4533.87826  4538.42290  4516.17866    -6.51660   -11.15497   -15.70297
  Fock        0.00000     0.00000     0.00000     0.00000     0.00000     0.00000
  Total      -0.00903     0.02892    -0.16428    -0.05639    -0.09698    -0.13586
  in kB      -0.02953     0.09459    -0.53738    -0.18445    -0.31725    -0.44443

 VOLUME and BASIS-vectors are now :
  energy-cutoff  :      520.00
  volume of cell :      489.80
      direct lattice vectors                 reciprocal lattice vectors
     7.709428486  0.097809726  4.502202565     0.131186509 -0.046682170 -0.001511935
     2.630822697  7.247336831  4.502201283    -0.000883545  0.139241772 -0.001512055
     0.137686662  0.097810725  8.926718836    -0.065718474 -0.046682539  0.113548397

  length of vectors
     8.928307917  8.928322105  8.928316399     0.139253047  0.139252785  0.139253063

 FORCES acting on ions:
    Electron-Ion                     Ewald-Force                    Non-Local-Force
   -.228E+00 -.163E+00 -.400E+00   0.208E+00 0.148E+00 0.365E+00   0.179E-01 0.126E-01 0.307E-01
   -.230E+00 -.164E+00 -.397E+00   0.210E+00 0.149E+00 0.362E+00   0.177E-01 0.127E-01 0.305E-01
   -.255E+02 -.181E+02 -.436E+02   0.260E+02 0.185E+02 0.446E+02   -.573E+00 -.408E+00 -.980E+00
   -.254E+02 -.181E+02 -.436E+02   0.260E+02 0.185E+02 0.446E+02   -.573E+00 -.407E+00 -.981E+00
   0.253E+02 0.180E+02 0.433E+02   -.259E+02 -.184E+02 -.443E+02   0.586E+00 0.416E+00 0.100E+01
   0.253E+02 0.180E+02 0.433E+02   -.259E+02 -.184E+02 -.443E+02   0.586E+00 0.416E+00 0.100E+01
   0.235E+01 0.104E+00 -.123E+01   -.199E+00 -.137E+00 -.399E-01   -.218E+01 0.332E-01 0.128E+01
   0.157E+01 -.214E+01 0.155E+00   -.114E+00 0.104E+00 -.191E+00   -.147E+01 0.206E+01 0.329E-01
   -.150E+01 0.218E+01 0.154E+00   0.625E-01 -.141E+00 -.190E+00   0.146E+01 -.207E+01 0.330E-01
   0.867E+00 0.218E+01 -.123E+01   -.191E+00 -.140E+00 -.455E-01   -.686E+00 -.207E+01 0.128E+01
   -.634E+00 -.214E+01 0.144E+01   -.110E+00 0.108E+00 -.189E+00   0.751E+00 0.206E+01 -.127E+01
   -.223E+01 0.105E+00 0.144E+01   0.639E-01 -.138E+00 -.188E+00   0.219E+01 0.331E-01 -.127E+01
   -.168E+02 0.119E+02 0.977E+02   0.496E+02 -.841E+01 -.121E+03   -.328E+02 -.352E+01 0.238E+02
   0.840E+01 0.843E+02 0.529E+02   0.106E+02 -.120E+03 -.523E+02   -.190E+02 0.359E+02 -.628E+00
   0.824E+02 -.198E+02 0.529E+02   -.110E+03 0.496E+02 -.523E+02   0.276E+02 -.298E+02 -.628E+00
   0.570E+01 -.198E+02 0.977E+02   0.839E+01 0.496E+02 -.121E+03   -.141E+02 -.298E+02 0.238E+02
   0.420E+02 0.843E+02 0.333E+02   -.508E+02 -.120E+03 -.164E+02   0.879E+01 0.359E+02 -.169E+02
   0.934E+02 0.119E+02 0.333E+02   -.130E+03 -.840E+01 -.164E+02   0.368E+02 -.352E+01 -.169E+02
   -.936E+02 -.111E+02 -.320E+02   0.130E+03 0.746E+01 0.150E+02   -.368E+02 0.364E+01 0.171E+02
   -.825E+02 0.207E+02 -.517E+02   0.110E+03 -.506E+02 0.509E+02   -.277E+02 0.299E+02 0.819E+00
   -.763E+01 -.848E+02 -.517E+02   -.115E+02 0.121E+03 0.509E+02   0.191E+02 -.360E+02 0.818E+00
   -.413E+02 -.848E+02 -.320E+02   0.500E+02 0.121E+03 0.150E+02   -.868E+01 -.360E+02 0.171E+02
   -.452E+01 0.207E+02 -.973E+02   -.975E+01 -.506E+02 0.121E+03   0.143E+02 0.299E+02 -.237E+02
   0.181E+02 -.111E+02 -.973E+02   -.510E+02 0.745E+01 0.121E+03   0.330E+02 0.365E+01 -.237E+02
   0.686E+02 0.198E+02 0.852E+02   -.698E+02 -.343E+02 -.127E+03   0.126E+01 0.145E+02 0.421E+02
   0.728E+02 0.318E+02 0.778E+02   -.792E+02 -.611E+02 -.111E+03   0.641E+01 0.293E+02 0.330E+02
   0.540E+02 0.582E+02 0.778E+02   -.838E+02 -.547E+02 -.111E+03   0.298E+02 -.359E+01 0.330E+02
   0.412E+02 0.582E+02 0.852E+02   -.554E+02 -.546E+02 -.127E+03   0.141E+02 -.359E+01 0.421E+02
   0.320E+02 0.318E+02 0.102E+03   -.576E+02 -.611E+02 -.123E+03   0.256E+02 0.293E+02 0.218E+02
   0.406E+02 0.198E+02 0.102E+03   -.767E+02 -.343E+02 -.123E+03   0.361E+02 0.145E+02 0.218E+02
   -.395E+02 -.199E+02 -.104E+03   0.753E+02 0.345E+02 0.126E+03   -.358E+02 -.146E+02 -.221E+02
   -.536E+02 -.604E+02 -.786E+02   0.832E+02 0.572E+02 0.112E+03   -.296E+02 0.319E+01 -.331E+02
   -.746E+02 -.308E+02 -.786E+02   0.814E+02 0.598E+02 0.112E+03   -.674E+01 -.290E+02 -.331E+02
   -.318E+02 -.308E+02 -.104E+03   0.573E+02 0.598E+02 0.126E+03   -.256E+02 -.290E+02 -.221E+02
   -.421E+02 -.604E+02 -.853E+02   0.564E+02 0.572E+02 0.127E+03   -.143E+02 0.319E+01 -.421E+02
   -.709E+02 -.199E+02 -.853E+02   0.726E+02 0.344E+02 0.127E+03   -.171E+01 -.146E+02 -.421E+02
   -.144E+00 -.102E+00 -.239E+00   0.114E-12 0.121E-12 0.284E-12   0.103E+00 0.734E-01 0.171E+00

 POSITION                                       TOTAL-FORCE (eV/Angst)
      5.21224      3.70248      8.91981        -0.001424     -0.001097     -0.002564
     10.45120      7.42397     17.88537        -0.001678     -0.001158     -0.002758
      6.79218      4.82481     11.62360         0.010892      0.007557      0.019154
      1.55321      1.10332      2.65804         0.011033      0.007934      0.018716
      8.86790      6.29928     15.17583         0.008558      0.005954      0.014789
      3.62894      2.57779      6.21027         0.008613      0.006112      0.014678
      8.01224      1.93991     10.28128         0.018784     -0.000009     -0.014435
      3.66592      0.48124      8.90260         0.011541     -0.020657     -0.001881
      6.76275      6.92672      8.94143        -0.015537      0.017848     -0.001490
      6.94036      3.30306      5.81793         0.006265      0.017968     -0.014492
      3.48590      4.10491     12.02754        -0.007174     -0.020558      0.009258
      2.41564      5.46576      7.56418        -0.021647      0.000012      0.009277
      4.70258      4.22975     11.18781         0.002330     -0.017989      0.011860
      7.66158      2.00720      5.85738         0.014332      0.013565     -0.008365
      7.02613      3.04762     10.32073         0.018296      0.008159     -0.008385
      2.93414      6.57350      6.72444        -0.016429      0.007487      0.012435
      6.44308      5.63085      9.58917        -0.014034      0.014591      0.007819
      2.33706      0.60609      9.55033         0.009179     -0.017728      0.007917
      8.08987      6.79907      8.29151        -0.012600      0.012860     -0.011462
      3.40102      4.35799      7.52080        -0.020553     -0.007258      0.001326
      2.76435      5.40008     11.98417        -0.014068     -0.016176      0.001175
      3.98236      1.77639      8.25268         0.007976     -0.016204     -0.011537
      7.49072      0.83214     11.11843         0.010873     -0.007865     -0.016785
      5.72266      3.17537      6.65507        -0.004858      0.012767     -0.016201
      8.14138      1.51666      8.89495         0.005252      0.005817     -0.015015
      6.20348      6.66765     12.41311        -0.002567     -0.016716     -0.000958
      5.73028      7.18799      7.94974        -0.016707      0.003126     -0.001135
      6.72091      3.66216     13.35833         0.007076      0.003286     -0.015970
      2.66772      3.04399     11.45944         0.000282     -0.016813     -0.002727
      8.85390      5.14034     11.49827        -0.014870      0.006075     -0.002426
      1.57079      2.26698      6.35457         0.015423     -0.008616     -0.000225
      4.69706      0.22699      9.89838         0.016934     -0.004524     -0.002711
      4.23137      0.73673      5.43502         0.001381      0.017433     -0.002853
      7.75903      4.36041      6.39342        -0.002568      0.018177      0.000022
      3.70953      3.75283      4.48801        -0.010634     -0.004548      0.013475
      2.29452      5.89065      8.95138        -0.007672     -0.008811      0.012475
    total drift:                               -0.040804     -0.028234     -0.068643

  FREE ENERGIE OF THE ION-ELECTRON SYSTEM (eV)
  free  energy   TOTEN  =      -370.85743483 eV

  energy  without entropy=     -370.85743483  energy(sigma->0) =     -370.85743483

 reached required accuracy - stopping structural energy minimisation

 total charge

[...]

 magnetization (x)

# of ion       s       p       d       tot
    1        0.000   0.000   0.002   0.002
    2        0.000   0.000   0.002   0.002
    3        0.013   0.017   4.550   4.580
    4        0.013   0.017   4.550   4.580
    5        0.013   0.018   4.549   4.580
    6        0.013   0.018   4.549   4.580
    7        0.006   0.014   0.000   0.020
    8        0.006   0.014   0.000   0.020
    9        0.006   0.014   0.000   0.020
   10        0.006   0.014   0.000   0.020
   11        0.006   0.014   0.000   0.020
   12        0.006   0.014   0.000   0.020
   13        0.005   0.018   0.000   0.024
   14        0.005   0.018   0.000   0.024
   15        0.005   0.018   0.000   0.024
   16        0.005   0.018   0.000   0.024
   17        0.005   0.018   0.000   0.024
   18        0.005   0.018   0.000   0.024
   19        0.005   0.018   0.000   0.023
   20        0.005   0.018   0.000   0.023
   21        0.005   0.018   0.000   0.023
   22        0.005   0.018   0.000   0.023
   23        0.005   0.018   0.000   0.023
   24        0.005   0.018   0.000   0.023
   25        0.006   0.019   0.000   0.025
   26        0.006   0.019   0.000   0.025
   27        0.006   0.019   0.000   0.025
   28        0.006   0.019   0.000   0.025
   29        0.006   0.019   0.000   0.025
   30        0.006   0.019   0.000   0.025
   31        0.006   0.019   0.000   0.026
   32        0.006   0.019   0.000   0.026
   33        0.006   0.019   0.000   0.026
   34        0.006   0.019   0.000   0.026
   35        0.006   0.019   0.000   0.026
   36        0.006   0.019   0.000   0.026
tot          0.227   0.607  18.200  19.034