 vasp.6.1.2 22Jul20 (build Mar 19 2021 09:51:12) complex

 executed on             LinuxIFC date 2021.07.23  22:51:46

 INCAR:
 POTCAR:    PAW_PBE Ca_sv 06Sep2000
 POTCAR:    PAW_PBE Ti_pv 07Sep2000
 POTCAR:    PAW_PBE O 08Apr2002
 POTCAR:    PAW_PBE Ca_sv 06Sep2000
   VRHFIN =Ca: 3s3p4s

   TITEL  = PAW_PBE Ca_sv 06Sep2000
   POMASS =   40.078; ZVAL   =   10.000    mass and valenz
   ENMAX  =  266.622; ENMIN  =  199.967 eV

 POTCAR:    PAW_PBE Ti_pv 07Sep2000
   VRHFIN =Ti: d3 s1

   TITEL  = PAW_PBE Ti_pv 07Sep2000
   POMASS =   47.880; ZVAL   =   10.000    mass and valenz
   ENMAX  =  222.335; ENMIN  =  166.751 eV

 POTCAR:    PAW_PBE O 08Apr2002
   VRHFIN =O: s2p4

   TITEL  = PAW_PBE O 08Apr2002
   POMASS =   16.000; ZVAL   =    6.000    mass and valenz
   ENMAX  =  400.000; ENMIN  =  300.000 eV

 Optimization of the real space projectors (new method)

 maximal supplied QI-value         = 16.25
 optimisation between [QCUT,QGAM] = [ 11.54, 23.24] = [ 37.28,151.24] Ry
 Optimized for a Real-space Cutoff    1.58 Angstroem

   l    n(q)    QCUT    max X(q) W(low)/X(q) W(high)/X(q)  e(spline)
   0     11    11.539    11.817    0.25E-04    0.22E-05    0.26E-07
   0     11    11.539     8.461    0.39E-04    0.49E-05    0.55E-07
   1     11    11.539     3.957    0.21E-05    0.44E-05    0.32E-07
   1     11    11.539     4.314    0.56E-04    0.44E-04    0.19E-06
   2     10    11.539    14.565    0.25E-03    0.21E-04    0.75E-06
   2     10    11.539    14.552    0.23E-03    0.22E-04    0.72E-06
 Optimization of the real space projectors (new method)

[...]

   l    n(q)    QCUT    max X(q) W(low)/X(q) W(high)/X(q)  e(spline)
   1     10    11.641     4.216    0.17E-04    0.40E-04    0.50E-07
   1     10    11.641     5.422    0.66E-04    0.10E-03    0.13E-06
   2      9    11.641    72.084    0.68E-04    0.13E-03    0.50E-06
   2      9    11.641    65.965    0.66E-04    0.13E-03    0.50E-06
   0     10    11.641    41.531    0.10E-03    0.87E-04    0.31E-06
   0     10    11.641    16.290    0.75E-04    0.66E-04    0.24E-06
 Optimization of the real space projectors (new method)

 maximal supplied QI-value         = 24.76
 optimisation between [QCUT,QGAM] = [ 11.64, 23.27] = [ 37.91,151.63] Ry
 Optimized for a Real-space Cutoff    1.14 Angstroem

   l    n(q)    QCUT    max X(q) W(low)/X(q) W(high)/X(q)  e(spline)
   0      8    11.635    20.381    0.10E-03    0.33E-03    0.24E-06
   0      8    11.635    15.268    0.11E-03    0.35E-03    0.26E-06
   1      7    11.635     5.964    0.24E-03    0.31E-03    0.30E-06
   1      7    11.635     5.382    0.22E-03    0.25E-03    0.26E-06
  PAW_PBE Ca_sv 06Sep2000               :
  PAW_PBE Ti_pv 07Sep2000               :
  PAW_PBE O 08Apr2002                   :

 POSCAR: Ca6 Ti4 O14
  positions in direct lattice
  velocities in cartesian coordinates

 METAGGA = SCAN     LMAXTAU =  6    LMIXTAU =  F

 ion  position               nearest neighbor table
   1  0.255  0.446  1.000-  11 2.36  20 2.40  19 2.40  12 2.45   7 3.17   8 3.17
   2  0.745  0.946  0.000-  12 2.36  18 2.40  17 2.40  11 2.45   9 3.17  10 3.17
   3  0.930  0.026  0.624-  15 2.28  24 2.33  16 2.35  13 2.44  17 2.48  10 3.07
   4  0.552  0.026  0.376-  16 2.28  23 2.33  15 2.34  14 2.45  18 2.48   9 3.07
   5  0.070  0.526  0.376-  13 2.28  22 2.33  14 2.35  15 2.44  19 2.48   8 3.07
   6  0.448  0.526  0.624-  14 2.28  21 2.33  13 2.34  16 2.45  20 2.48   7 3.07
   7  0.349  0.988  0.801-  16 1.95  21 1.96  24 1.97  17 1.97  12 1.98  20 1.99   6 3.07   1 3.17

   8  0.150  0.988  0.199-  15 1.96  22 1.96  23 1.97  18 1.97  12 1.98  19 1.99   5 3.07   1 3.17

[...]

  11  0.823  0.506  0.000-  10 1.98   9 1.98   1 2.36   2 2.45
  12  0.177  0.006  1.000-   8 1.98   7 1.98   2 2.36   1 2.45
  13  0.884  0.467  0.604-  10 1.96   5 2.28   6 2.34   3 2.44
  14  0.488  0.468  0.396-   9 1.95   6 2.28   5 2.35   4 2.45
  15  0.116  0.967  0.396-   8 1.96   3 2.28   4 2.34   5 2.44
  16  0.512  0.968  0.604-   7 1.95   4 2.28   3 2.35   6 2.45
  17  0.626  0.195  0.832-   7 1.97  10 1.99   2 2.40   3 2.48
  18  0.457  0.195  0.168-   8 1.97   9 1.99   2 2.40   4 2.48
  19  0.374  0.695  0.168-   9 1.97   8 1.99   1 2.40   5 2.48
  20  0.543  0.695  0.832-  10 1.97   7 1.99   1 2.40   6 2.48
  21  0.154  0.278  0.775-   7 1.96  10 1.97   6 2.33
  22  0.929  0.278  0.225-   8 1.96   9 1.97   5 2.33
  23  0.846  0.778  0.225-   9 1.96   8 1.97   4 2.33
  24  0.071  0.778  0.775-  10 1.96   7 1.97   3 2.33

IMPORTANT INFORMATION: All symmetrisations will be switched off!
NOSYMM: (Re-)initialisation of all symmetry stuff for point group C_1.

                                     Primitive cell

  volume of cell :     289.7529

  direct lattice vectors                    reciprocal lattice vectors
     0.000000797 -5.425844155 -0.000530952    -0.000000024 -0.184308139  0.051296660
    -5.476821149  0.000000826  0.000000363    -0.182587668 -0.000000027 -0.000000012
     0.000001064 -2.713865429 -9.750878204    -0.000000007  0.000010036 -0.102557658

  length of vectors
     5.425844181  5.476821149 10.121496496     0.191313453  0.182587668  0.102557659

  position of ions in fractional coordinates (direct lattice)
     0.254876545  0.445757464  0.999767001
     0.745123768  0.945757721  0.000233024
     0.929628099  0.026024273  0.623979221
     0.552068471  0.025574842  0.376299165
     0.070371356  0.526024061  0.376021142
     0.447931136  0.525574537  0.623700990
     0.349018110  0.988437753  0.801156603
     0.149534080  0.988493777  0.198633187
     0.650981815  0.488437479  0.198843690
     0.850466281  0.488494297  0.801366469
     0.823392735  0.506003703  0.000028942
     0.176607373  0.006003226  0.999971107
     0.883550538  0.467455957  0.604474531
     0.487569679  0.467621844  0.395539185
     0.116449058  0.967456185  0.395525393
     0.512430371  0.967622169  0.604460829
     0.625692295  0.195044403  0.832350059
     0.457453923  0.195104235  0.167868733
     0.374308352  0.695044685  0.167649370
     0.542546111  0.695104915  0.832131279
     0.154487459  0.278067853  0.775233269
     0.929174242  0.277913112  0.224555377
     0.845512202  0.778068244  0.224766847
     0.070826002  0.777913264  0.775444586

  ion indices of the primitive-cell ions
   primitive index   ion index
                 1           1
                 2           2
                 3           3
                 4           4
                 5           5
                 6           6
                 7           7
                 8           8
                 9           9
                10          10
                11          11
                12          12
                13          13
                14          14
                15          15
                16          16
                17          17
                18          18
                19          19
                20          20
                21          21
                22          22
                23          23
                24          24

 KPOINTS: K-points file

Automatic generation of k-mesh.
Space group operators:
 irot       det(A)        alpha          n_x          n_y          n_z        tau_x        tau_y        tau_z
    1     1.000000     0.000000     1.000000     0.000000     0.000000     0.000000     0.000000     0.000000

 Subroutine IBZKPT returns following result:

 Found     76 irreducible k-points:

 Following reciprocal coordinates:
            Coordinates               Weight
  0.000000  0.000000  0.000000      1.000000
  0.166667 -0.000000 -0.000000      2.000000
  0.333333 -0.000000  0.000000      2.000000
  0.500000 -0.000000 -0.000000      1.000000
 -0.000000  0.166667  0.000000      2.000000
  0.166667  0.166667 -0.000000      2.000000
 -0.166667  0.166667 -0.000000      2.000000
  0.333333  0.166667 -0.000000      2.000000
 -0.333333  0.166667  0.000000      2.000000
  0.500000  0.166667  0.000000      2.000000
  0.000000  0.333333 -0.000000      2.000000
  0.166667  0.333333  0.000000      2.000000
 -0.166667  0.333333 -0.000000      2.000000
  0.333333  0.333333 -0.000000      2.000000
 -0.333333  0.333333  0.000000      2.000000
  0.500000  0.333333 -0.000000      2.000000
 -0.000000  0.500000  0.000000      1.000000
  0.166667  0.500000 -0.000000      2.000000
  0.333333  0.500000  0.000000      2.000000
  0.500000  0.500000 -0.000000      1.000000
  0.000000  0.000000  0.250000      2.000000
  0.166667 -0.000000  0.250000      2.000000
  0.333333 -0.000000  0.250000      2.000000
  0.500000  0.000000  0.250000      2.000000
 -0.333333 -0.000000  0.250000      2.000000
 -0.166667  0.000000  0.250000      2.000000
 -0.000000  0.166667  0.250000      2.000000
 -0.000000  0.166667 -0.250000      2.000000
  0.166667  0.166667  0.250000      2.000000
 -0.166667  0.166667 -0.250000      2.000000
  0.333333  0.166667  0.250000      2.000000
 -0.333333  0.166667 -0.250000      2.000000
  0.500000  0.166667  0.250000      2.000000
  0.500000  0.166667 -0.250000      2.000000
 -0.333333  0.166667  0.250000      2.000000
  0.333333  0.166667 -0.250000      2.000000
 -0.166667  0.166667  0.250000      2.000000
  0.166667  0.166667 -0.250000      2.000000
 -0.000000  0.333333  0.250000      2.000000
 -0.000000  0.333333 -0.250000      2.000000
  0.166667  0.333333  0.250000      2.000000
 -0.166667  0.333333 -0.250000      2.000000
  0.333333  0.333333  0.250000      2.000000
 -0.333333  0.333333 -0.250000      2.000000
  0.500000  0.333333  0.250000      2.000000
  0.500000  0.333333 -0.250000      2.000000
 -0.333333  0.333333  0.250000      2.000000
  0.333333  0.333333 -0.250000      2.000000
 -0.166667  0.333333  0.250000      2.000000
  0.166667  0.333333 -0.250000      2.000000
  0.000000  0.500000  0.250000      2.000000
  0.166667  0.500000  0.250000      2.000000
  0.333333  0.500000  0.250000      2.000000
  0.500000  0.500000  0.250000      2.000000
 -0.333333  0.500000  0.250000      2.000000
 -0.166667  0.500000  0.250000      2.000000
  0.000000  0.000000  0.500000      1.000000
  0.166667 -0.000000  0.500000      2.000000
  0.333333 -0.000000  0.500000      2.000000
  0.500000 -0.000000  0.500000      1.000000
 -0.000000  0.166667  0.500000      2.000000
  0.166667  0.166667  0.500000      2.000000
 -0.166667  0.166667  0.500000      2.000000
  0.333333  0.166667  0.500000      2.000000
 -0.333333  0.166667  0.500000      2.000000
  0.500000  0.166667  0.500000      2.000000
  0.000000  0.333333  0.500000      2.000000
  0.166667  0.333333  0.500000      2.000000
 -0.166667  0.333333  0.500000      2.000000
  0.333333  0.333333  0.500000      2.000000
 -0.333333  0.333333  0.500000      2.000000
  0.500000  0.333333  0.500000      2.000000
 -0.000000  0.500000  0.500000      1.000000
  0.166667  0.500000  0.500000      2.000000
  0.333333  0.500000  0.500000      2.000000
  0.500000  0.500000  0.500000      1.000000

 Following cartesian coordinates:
            Coordinates               Weight
  0.000000  0.000000  0.000000      1.000000
 -0.000000 -0.030718  0.008549      2.000000
 -0.000000 -0.061436  0.017099      2.000000
 -0.000000 -0.092154  0.025648      1.000000
[...]
  o =  0.1146  v =  0.0132  0.1619 -0.0028 -0.8611  0.4818  0.0000  0.0000  0.0000  0.0000  0.0000      0.0000  0.0000  0.0000  0.0000  0.0000  0.0000  0.0000  0.0000  0.0000  0.0000
  o =  0.2819  v = -0.9401  0.0064  0.0497 -0.1747 -0.2883  0.0000  0.0000  0.0000  0.0000  0.0000      0.0000  0.0000  0.0000  0.0000  0.0000  0.0000  0.0000  0.0000  0.0000  0.0000
  o =  0.2819  v =  0.0000  0.0000  0.0000  0.0000  0.0000 -0.9401  0.0064  0.0497 -0.1747 -0.2883      0.0000  0.0000  0.0000  0.0000  0.0000  0.0000  0.0000  0.0000  0.0000  0.0000
  o =  0.2992  v =  0.0625 -0.3051  0.9481 -0.0641 -0.0083  0.0000  0.0000  0.0000  0.0000  0.0000      0.0000  0.0000  0.0000  0.0000  0.0000  0.0000  0.0000  0.0000  0.0000  0.0000
  o =  0.2992  v =  0.0000  0.0000  0.0000  0.0000  0.0000  0.0625 -0.3051  0.9481 -0.0641 -0.0083      0.0000  0.0000  0.0000  0.0000  0.0000  0.0000  0.0000  0.0000  0.0000  0.0000
atom =  10  type =  2  l = 2

 onsite density matrix

[...]

  0.2617  0.0048  0.0032 -0.0286  0.0486
  0.0048  0.1278  0.0545  0.0033 -0.0012
  0.0032  0.0545  0.2803  0.0131 -0.0041
 -0.0286  0.0033  0.0131  0.1180 -0.0041
  0.0486 -0.0012 -0.0041 -0.0041  0.1203

 occupancies and eigenvectors

  o =  0.1025  v =  0.3350 -0.1061 -0.0251  0.4412 -0.8254  0.0000  0.0000  0.0000  0.0000  0.0000      0.0000  0.0000  0.0000  0.0000  0.0000  0.0000  0.0000  0.0000  0.0000  0.0000
  o =  0.1025  v =  0.0000  0.0000  0.0000  0.0000  0.0000  0.3350 -0.1061 -0.0251  0.4412 -0.8254      0.0000  0.0000  0.0000  0.0000  0.0000  0.0000  0.0000  0.0000  0.0000  0.0000
  o =  0.1101  v = -0.0138 -0.9320  0.3132 -0.1818  0.0075  0.0000  0.0000  0.0000  0.0000  0.0000      0.0000  0.0000  0.0000  0.0000  0.0000  0.0000  0.0000  0.0000  0.0000  0.0000
  o =  0.1101  v =  0.0000  0.0000  0.0000  0.0000  0.0000 -0.0138 -0.9320  0.3132 -0.1818  0.0075      0.0000  0.0000  0.0000  0.0000  0.0000  0.0000  0.0000  0.0000  0.0000  0.0000
  o =  0.1146  v = -0.0121  0.1645  0.0022 -0.8587 -0.4851  0.0000  0.0000  0.0000  0.0000  0.0000      0.0000  0.0000  0.0000  0.0000  0.0000  0.0000  0.0000  0.0000  0.0000  0.0000
  o =  0.1146  v =  0.0000  0.0000  0.0000  0.0000  0.0000 -0.0121  0.1645  0.0022 -0.8587 -0.4851      0.0000  0.0000  0.0000  0.0000  0.0000  0.0000  0.0000  0.0000  0.0000  0.0000
  o =  0.2818  v =  0.0000  0.0000  0.0000  0.0000  0.0000 -0.9401 -0.0067  0.0473  0.1752 -0.2886      0.0000  0.0000  0.0000  0.0000  0.0000  0.0000  0.0000  0.0000  0.0000  0.0000
  o =  0.2818  v = -0.9401 -0.0067  0.0473  0.1752 -0.2886  0.0000  0.0000  0.0000  0.0000  0.0000      0.0000  0.0000  0.0000  0.0000  0.0000  0.0000  0.0000  0.0000  0.0000  0.0000
  o =  0.2990  v =  0.0603  0.3050  0.9482  0.0650 -0.0089  0.0000  0.0000  0.0000  0.0000  0.0000      0.0000  0.0000  0.0000  0.0000  0.0000  0.0000  0.0000  0.0000  0.0000  0.0000
  o =  0.2990  v =  0.0000  0.0000  0.0000  0.0000  0.0000  0.0603  0.3050  0.9482  0.0650 -0.0089      0.0000  0.0000  0.0000  0.0000  0.0000  0.0000  0.0000  0.0000  0.0000  0.0000

 eigenvalue-minimisations  : 18600
 total energy-change (2. order) :-0.4450631E-06  (-0.3664869E-06)
 number of electron     183.9999972 magnetization      -0.0000000
 augmentation part       43.2731271 magnetization       0.0000023

 Free energy of the ion-electron system (eV)
  alpha Z        PSCENC =       966.04894640
  Ewald energy   TEWEN  =    -12377.91881994
  -Hartree energ DENC   =     -3777.59002459
  -exchange      EXHF   =         0.00000000
  -V(xc)+E(xc)   XCENC  =       947.48721282
  PAW double counting   =     16765.77117095   -16894.18640950
  entropy T*S    EENTRO =        -0.00000000
  eigenvalues    EBANDS =     -2173.58295061
  atomic energy  EATOM  =     16259.93422758
  Solvation  Ediel_sol  =         0.00000000
  free energy    TOTEN  =      -284.03664688 eV

  energy without entropy =     -284.03664688  energy(sigma->0) =     -284.03664688

 average (electrostatic) potential at core
  the test charge radii are     1.1137  1.0397  0.7215
  (the norm of the test charge is              1.0000)
       1 -47.9296       2 -47.9296       3 -47.7205       4 -47.7168       5 -47.7205
       6 -47.7168       7 -59.2511       8 -59.2489       9 -59.2511      10 -59.2489
      11 -74.1115      12 -74.1115      13 -73.8350      14 -73.8534      15 -73.8350
      16 -73.8534      17 -74.3296      18 -74.3335      19 -74.3296      20 -74.3335
      21 -74.3545      22 -74.3578      23 -74.3545      24 -74.3578

 E-fermi :   2.7472     XC(G=0): -11.5722     alpha+bet :-13.0887

[...]

 spin component 2

[...]

 k-point    76 :       0.5000    0.5000    0.5000
  band No.  band energies     occupation
      1     -36.8897      1.00000
      2     -36.8897      1.00000
      3     -36.7179      1.00000
      4     -36.7179      1.00000
      5     -36.7149      1.00000
      6     -36.7149      1.00000
      7     -31.8601      1.00000
      8     -31.8601      1.00000
      9     -31.8591      1.00000
     10     -31.8591      1.00000
     11     -31.7906      1.00000
     12     -31.7906      1.00000
     13     -31.7857      1.00000
     14     -31.7857      1.00000
     15     -31.7734      1.00000
     16     -31.7734      1.00000
     17     -31.7435      1.00000
     18     -31.7434      1.00000
     19     -17.5252      1.00000
     20     -17.5252      1.00000
     21     -17.3978      1.00000
     22     -17.3978      1.00000
     23     -17.3443      1.00000
     24     -17.3443      1.00000
     25     -17.2026      1.00000
     26     -17.2026      1.00000
     27     -17.0022      1.00000
     28     -17.0022      1.00000
     29     -16.9621      1.00000
     30     -16.9621      1.00000
     31     -16.9005      1.00000
     32     -16.9005      1.00000
     33     -16.8632      1.00000
     34     -16.8632      1.00000
     35     -16.8538      1.00000
     36     -16.8538      1.00000
     37     -14.8620      1.00000
     38     -14.8620      1.00000
     39     -14.7350      1.00000
     40     -14.7350      1.00000
     41     -14.4182      1.00000
     42     -14.4182      1.00000
     43     -14.2810      1.00000
     44     -14.2810      1.00000
     45     -14.1981      1.00000
     46     -14.1981      1.00000
     47     -13.6631      1.00000
     48     -13.6631      1.00000
     49     -13.5775      1.00000
     50     -13.5775      1.00000
     51      -1.6409      1.00000
     52      -1.6409      1.00000
     53      -1.6295      1.00000
     54      -1.6295      1.00000
     55      -1.3399      1.00000
     56      -1.3399      1.00000
     57      -0.8718      1.00000
     58      -0.8718      1.00000
     59      -0.5229      1.00000
     60      -0.5229      1.00000
[...]
     97       6.9150      0.00000
     98       6.9150      0.00000
     99       6.9971      0.00000
    100       6.9971      0.00000
    101       7.2619      0.00000
    102       7.2619      0.00000
    103       7.4120      0.00000
    104       7.4120      0.00000
    105       8.0972      0.00000
    106       8.0972      0.00000
    107       8.3632      0.00000
    108       8.3632      0.00000
    109       9.5765      0.00000
    110       9.5766      0.00000
    111       9.7779      0.00000

[...]

 soft charge-density along one line, spin component           2
         0         1         2         3         4         5         6         7         8         9
 total charge-density along one line

------------------------ aborting loop because EDIFF is reached ----------------------------------------

[...]

  FORCE on cell =-STRESS in cart. coord.  units (eV):
  Direction    XX          YY          ZZ          XY          YZ          ZX
  Alpha Z   966.04895   966.04895   966.04895
  Ewald   -3991.04620 -3883.42775 -4503.47738    -0.00126     1.06821     0.00131
  Hartree  1425.12122  1480.40768   872.06930    -0.00065     0.63390     0.00064
  E(xc)    -934.70967  -934.37078  -933.79033    -0.00000     0.00195     0.00000
  Local    -298.99182  -464.54650   752.88272     0.00189    -1.73119    -0.00197
  n-local  -609.96051  -611.74949  -612.60478    -0.00002     0.00917     0.00002
  augment   487.99292   488.84808   491.64996    -0.00000     0.00051     0.00001
  Kinetic  2955.46224  2958.74909  2967.21910    -0.00003    -0.01029    -0.00004
  Fock        0.00000     0.00000     0.00000     0.00000     0.00000     0.00000
  Total      -0.08286    -0.04073    -0.00246    -0.00006    -0.02775    -0.00003
  in kB      -0.45793    -0.22508    -0.01357    -0.00036    -0.15335    -0.00015

 VOLUME and BASIS-vectors are now :
  energy-cutoff  :      520.00
  volume of cell :      289.92
      direct lattice vectors                 reciprocal lattice vectors
    -0.000000711 -5.427877946 -0.000566599     0.000000019 -0.184239419  0.051322540
    -5.480452032 -0.000000701 -0.000000498    -0.182466701  0.000000024  0.000000016
    -0.000001227 -2.714954174 -9.746235825     0.000000009  0.000010711 -0.102606698

  length of vectors
     5.427877976  5.480452032 10.117316290     0.191254194  0.182466701  0.102606699

 FORCES acting on ions
    electron-ion (+dipol)            ewald-force                    non-local-force                 convergence-correction
   0.396E+02 -.110E+01 -.320E-02   -.394E+02 0.162E+01 0.322E-03   -.153E+00 -.516E+00 0.420E-03   -.527E-03 0.330E-03 -.103E-02
   0.396E+02 0.110E+01 0.318E-02   -.394E+02 -.162E+01 -.289E-03   -.153E+00 0.516E+00 -.405E-03   -.521E-03 -.307E-03 0.102E-02
   -.263E+02 0.273E+02 -.226E+03   0.257E+02 -.259E+02 0.226E+03   0.529E+00 -.138E+01 -.305E+00   -.513E-03 0.919E-03 -.694E-03
   -.264E+02 0.276E+02 0.226E+03   0.259E+02 -.262E+02 -.227E+03   0.490E+00 -.138E+01 0.291E+00   -.148E-02 -.107E-03 0.221E-02
   -.263E+02 -.273E+02 0.226E+03   0.257E+02 0.259E+02 -.226E+03   0.529E+00 0.138E+01 0.305E+00   -.516E-03 -.917E-03 0.686E-03
   -.264E+02 -.276E+02 -.226E+03   0.259E+02 0.262E+02 0.227E+03   0.490E+00 0.138E+01 -.291E+00   -.148E-02 0.106E-03 -.221E-02
   -.790E+00 -.499E+01 -.125E+03   0.699E+00 0.510E+01 0.125E+03   0.709E-01 -.133E+00 -.449E-01   0.161E-02 0.211E-02 -.171E-02
   -.146E+01 -.435E+01 0.126E+03   0.139E+01 0.444E+01 -.126E+03   0.528E-01 -.988E-01 0.100E+00   0.237E-02 -.127E-02 -.921E-03
   -.789E+00 0.499E+01 0.125E+03   0.697E+00 -.510E+01 -.125E+03   0.708E-01 0.133E+00 0.449E-01   0.158E-02 -.210E-02 0.170E-02
   -.146E+01 0.435E+01 -.126E+03   0.140E+01 -.444E+01 0.126E+03   0.528E-01 0.987E-01 -.100E+00   0.235E-02 0.130E-02 0.902E-03
   -.177E+02 0.265E+02 0.767E+00   0.186E+02 -.284E+02 -.870E+00   -.977E+00 0.186E+01 0.104E+00   0.193E-02 -.652E-03 -.795E-03
   -.177E+02 -.265E+02 -.767E+00   0.186E+02 0.284E+02 0.870E+00   -.977E+00 -.186E+01 -.104E+00   0.195E-02 0.656E-03 0.799E-03
   0.117E+02 0.444E+01 -.195E+03   -.122E+02 -.463E+01 0.202E+03   0.572E+00 0.200E+00 -.763E+01   0.952E-03 0.671E-04 -.167E-02
   0.118E+02 0.396E+01 0.195E+03   -.124E+02 -.411E+01 -.203E+03   0.592E+00 0.160E+00 0.775E+01   0.171E-02 0.566E-03 0.425E-03
   0.117E+02 -.444E+01 0.195E+03   -.122E+02 0.463E+01 -.202E+03   0.572E+00 -.200E+00 0.763E+01   0.953E-03 -.617E-04 0.167E-02
   0.118E+02 -.396E+01 -.195E+03   -.124E+02 0.411E+01 0.203E+03   0.592E+00 -.160E+00 -.775E+01   0.171E-02 -.565E-03 -.428E-03
   -.697E+01 0.195E+02 -.305E+02   0.753E+01 -.212E+02 0.277E+02   -.551E+00 0.168E+01 0.284E+01   -.159E-03 -.755E-04 -.763E-03
   -.766E+01 0.190E+02 0.304E+02   0.834E+01 -.207E+02 -.276E+02   -.687E+00 0.163E+01 -.283E+01   -.344E-03 -.123E-03 0.752E-03
   -.697E+01 -.195E+02 0.305E+02   0.752E+01 0.212E+02 -.277E+02   -.551E+00 -.168E+01 -.284E+01   -.157E-03 0.695E-04 0.763E-03
   -.766E+01 -.190E+02 -.304E+02   0.834E+01 0.207E+02 0.276E+02   -.687E+00 -.163E+01 0.283E+01   -.347E-03 0.880E-04 -.757E-03
   0.105E+02 0.134E+02 -.108E+03   -.116E+02 -.144E+02 0.109E+03   0.104E+01 0.956E+00 -.970E+00   0.858E-03 0.854E-03 -.726E-04
   0.115E+02 0.132E+02 0.108E+03   -.126E+02 -.141E+02 -.109E+03   0.116E+01 0.925E+00 0.949E+00   -.303E-03 0.142E-02 -.771E-03
   0.105E+02 -.134E+02 0.108E+03   -.116E+02 0.144E+02 -.109E+03   0.104E+01 -.956E+00 0.970E+00   0.865E-03 -.855E-03 0.778E-04
   0.115E+02 -.132E+02 -.108E+03   -.126E+02 0.141E+02 0.109E+03   0.116E+01 -.925E+00 -.949E+00   -.306E-03 -.142E-02 0.776E-03
   -.435E+01 0.292E-03 -.566E-04   -.266E-13 0.338E-13 -.114E-12   0.429E+01 -.336E-03 0.844E-04   0.122E-01 0.351E-04 -.405E-04

 POSITION                                       TOTAL-FORCE (eV/Angst)
     -2.44250     -4.09518     -9.74594        -0.001939     -0.001252     -0.003485
     -5.18272     -4.04766     -0.00086        -0.001936      0.001244      0.003503
     -0.14278     -6.73866     -6.08055        -0.007408      0.001464     -0.000402
     -0.14286     -4.01900     -3.66571        -0.011130      0.004572      0.012586
     -2.88300     -1.40418     -3.66625        -0.007400     -0.001463      0.000382
     -2.88308     -4.12383     -6.08109        -0.011124     -0.004584     -0.012571
     -5.41805     -4.07078     -7.80760        -0.008302     -0.014168      0.004779
     -5.41925     -1.34890     -1.93503         0.006149     -0.010239     -0.004616
     -2.67783     -4.07205     -1.93920        -0.008313      0.014152     -0.004836
     -2.67903     -6.79394     -7.81177         0.006163      0.010237      0.004659
     -2.77112     -4.46951     -0.00129         0.002370     -0.007726      0.000551
     -0.03090     -3.67332     -9.74551         0.002364      0.007693     -0.000600
     -2.56050     -6.43621     -5.89267         0.005655      0.006596     -0.001489
     -2.56133     -3.71977     -3.85575         0.010052      0.008184     -0.009747
     -5.30072     -1.70662     -3.85413         0.005649     -0.006596      0.001495
     -5.30156     -4.42307     -5.89105         0.010055     -0.008197      0.009751
     -1.06974     -5.65605     -8.11321         0.002027      0.008882     -0.000978
     -1.06941     -2.93842     -1.63528        -0.005900      0.008373      0.006652
     -3.80997     -2.48678     -1.63359         0.002004     -0.008866      0.000982
     -3.80964     -5.20442     -8.11152        -0.005989     -0.008172     -0.006615
     -1.52285     -2.94239     -7.55529         0.004981     -0.000972      0.000841
     -1.52284     -5.65229     -2.19056         0.003533      0.004354     -0.006627
     -4.26307     -5.20044     -2.19152         0.004931      0.000920     -0.000837
     -4.26306     -2.49054     -7.55624         0.003508     -0.004434      0.006622
    total drift:                               -0.044723     -0.000010     -0.000013

  FREE ENERGIE OF THE ION-ELECTRON SYSTEM (eV)
  free  energy   TOTEN  =      -284.03664688 eV

  energy  without entropy=     -284.03664688  energy(sigma->0) =     -284.03664688

 d Force = 0.2726745E-03[ 0.186E-03, 0.360E-03]  d Energy = 0.3999686E-03-0.127E-03
 d Force =-0.3305354E+00[-0.332E+00,-0.329E+00]  d Ewald  = 0.3276129E+00-0.658E+00

 Conjugate gradient step on ions:
 trial-energy change:   -0.000400  1 .order   -0.000279   -0.000380   -0.000178
  (g-gl).g = 0.529E-03      g.g   = 0.532E-03  gl.gl    = 0.644E-03
 g(Force)  = 0.468E-03   g(Stress)= 0.640E-04 ortho     = 0.329E-05
 gamma     =   0.82096
 trial     =   0.71025
 opt step  =   0.83006  (harmonic =   1.33464) maximal distance =0.00170853
 next E    =  -284.036662   (d E  =  -0.00042)

 reached required accuracy - stopping structural energy minimisation

 total charge

[...]

 magnetization (x)

# of ion       s       p       d       tot
    1        0.000   0.000   0.000   0.000
    2        0.000   0.000   0.000   0.000
    3        0.000   0.000  -0.000   0.000
    4        0.000  -0.000  -0.000   0.000
    5        0.000  -0.000  -0.000   0.000
    6        0.000   0.000  -0.000   0.000
    7       -0.000  -0.000   0.000   0.000
    8        0.000   0.000   0.000   0.000
    9       -0.000  -0.000  -0.000  -0.000
   10       -0.000   0.000   0.000  -0.000
   11        0.000   0.000   0.000   0.000
   12        0.000   0.000   0.000   0.000
   13        0.000   0.000   0.000   0.000
   14        0.000   0.000   0.000   0.000
   15        0.000  -0.000   0.000  -0.000
   16        0.000  -0.000   0.000  -0.000
   17       -0.000  -0.000   0.000  -0.000
   18       -0.000  -0.000   0.000  -0.000
   19        0.000  -0.000   0.000  -0.000
   20        0.000  -0.000   0.000  -0.000
   21        0.000   0.000   0.000   0.000
   22       -0.000   0.000   0.000   0.000
   23        0.000   0.000   0.000   0.000
   24        0.000   0.000   0.000   0.000
tot          0.000   0.000   0.000   0.000