 vasp.6.1.2 22Jul20 (build Mar 19 2021 09:51:12) complex

 executed on             LinuxIFC date 2021.07.25  19:06:35

 INCAR:
 POTCAR:    PAW_PBE Si 05Jan2001
 POTCAR:    PAW_PBE Ni_pv 06Sep2000
 POTCAR:    PAW_PBE O 08Apr2002
 POTCAR:    PAW_PBE Si 05Jan2001
   VRHFIN =Si: s2p2

   TITEL  = PAW_PBE Si 05Jan2001
   POMASS =   28.085; ZVAL   =    4.000    mass and valenz
   ENMAX  =  245.345; ENMIN  =  184.009 eV

 POTCAR:    PAW_PBE Ni_pv 06Sep2000
   VRHFIN =Ni:

   TITEL  = PAW_PBE Ni_pv 06Sep2000
   POMASS =   58.690; ZVAL   =   16.000    mass and valenz
   ENMAX  =  367.986; ENMIN  =  275.989 eV

 POTCAR:    PAW_PBE O 08Apr2002
   VRHFIN =O: s2p4

   TITEL  = PAW_PBE O 08Apr2002
   POMASS =   16.000; ZVAL   =    6.000    mass and valenz
   ENMAX  =  400.000; ENMIN  =  300.000 eV

 Optimization of the real space projectors (new method)

 maximal supplied QI-value         = 19.84
 optimisation between [QCUT,QGAM] = [ 11.51, 23.22] = [ 37.09,150.92] Ry
 Optimized for a Real-space Cutoff    1.21 Angstroem

   l    n(q)    QCUT    max X(q) W(low)/X(q) W(high)/X(q)  e(spline)
   0      8    11.508   159.560    0.71E-04    0.15E-03    0.51E-07
   0      8    11.508   115.863    0.70E-04    0.15E-03    0.51E-07
   1      8    11.508    88.339    0.16E-03    0.38E-04    0.82E-07
   1      8    11.508    48.592    0.15E-03    0.36E-04    0.79E-07
 Optimization of the real space projectors (new method)

[...]

   l    n(q)    QCUT    max X(q) W(low)/X(q) W(high)/X(q)  e(spline)
   1      9    11.527     2.836    0.16E-04    0.30E-04    0.95E-07
   1      9    11.527     4.023    0.73E-04    0.81E-04    0.21E-06
   2      9    11.527    73.368    0.15E-03    0.29E-03    0.28E-06
   2      9    11.527    69.010    0.15E-03    0.29E-03    0.29E-06
   0      9    11.527    54.797    0.43E-04    0.28E-04    0.85E-07
   0      9    11.527    24.266    0.33E-04    0.24E-04    0.75E-07
 Optimization of the real space projectors (new method)

 maximal supplied QI-value         = 24.76
 optimisation between [QCUT,QGAM] = [ 11.64, 23.27] = [ 37.91,151.63] Ry
 Optimized for a Real-space Cutoff    1.14 Angstroem

   l    n(q)    QCUT    max X(q) W(low)/X(q) W(high)/X(q)  e(spline)
   0      8    11.635    20.381    0.10E-03    0.33E-03    0.24E-06
   0      8    11.635    15.268    0.11E-03    0.35E-03    0.26E-06
   1      7    11.635     5.964    0.24E-03    0.31E-03    0.30E-06
   1      7    11.635     5.382    0.22E-03    0.25E-03    0.26E-06
  PAW_PBE Si 05Jan2001                  :
  PAW_PBE Ni_pv 06Sep2000               :
  PAW_PBE O 08Apr2002                   :

 POSCAR: Si4 Ni8 O16
  positions in direct lattice
  velocities in cartesian coordinates

 METAGGA = SCAN     LMAXTAU =  6    LMIXTAU =  F

 ion  position               nearest neighbor table
   1  0.071  0.595  0.250-  13 1.61  21 1.64  27 1.64  18 1.66   5 2.68   7 2.68   9 2.72
   2  0.429  0.095  0.250-  14 1.61  28 1.64  22 1.64  17 1.66   6 2.68   8 2.68  10 2.72
   3  0.929  0.405  0.750-  15 1.61  25 1.64  23 1.64  20 1.66   7 2.68   5 2.68  11 2.72
   4  0.571  0.905  0.750-  16 1.61  26 1.64  24 1.64  19 1.66   8 2.68   6 2.68  12 2.72
   5  0.500  0.500  1.000-  13 2.06  15 2.06  20 2.06  18 2.07  25 2.11  21 2.11   3 2.68   1 2.68

   6  0.000  1.000  0.500-  16 2.06  14 2.06  17 2.06  19 2.07  22 2.11  26 2.11   2 2.68   4 2.68

[...]

   9  0.504  0.773  0.250-  17 2.03  26 2.05  24 2.05  13 2.10  21 2.16  27 2.16   1 2.72
  10  0.996  0.273  0.250-  18 2.03  23 2.05  25 2.05  14 2.10  28 2.16  22 2.16   2 2.72
  11  0.496  0.227  0.750-  19 2.03  22 2.05  28 2.05  15 2.10  25 2.16  23 2.16   3 2.72
  12  0.004  0.727  0.750-  20 2.03  27 2.05  21 2.05  16 2.10  24 2.16  26 2.16   4 2.72
  13  0.729  0.594  0.250-   1 1.61   7 2.06   5 2.06   9 2.10
  14  0.771  0.094  0.250-   2 1.61   8 2.06   6 2.06  10 2.10
  15  0.271  0.406  0.750-   3 1.61   7 2.06   5 2.06  11 2.10
  16  0.229  0.906  0.750-   4 1.61   6 2.06   8 2.06  12 2.10
  17  0.283  0.945  0.250-   2 1.66   9 2.03   6 2.06   8 2.06
  18  0.217  0.445  0.250-   1 1.66  10 2.03   5 2.07   7 2.07
  19  0.717  0.055  0.750-   4 1.66  11 2.03   8 2.07   6 2.07
  20  0.783  0.555  0.750-   3 1.66  12 2.03   7 2.06   5 2.06
  21  0.224  0.663  0.029-   1 1.64  12 2.05   5 2.11   9 2.16
  22  0.276  0.163  0.471-   2 1.64  11 2.05   6 2.11  10 2.16
  23  0.776  0.337  0.529-   3 1.64  10 2.05   7 2.11  11 2.16
  24  0.724  0.837  0.971-   4 1.64   9 2.05   8 2.11  12 2.16
  25  0.776  0.337  0.971-   3 1.64  10 2.05   5 2.11  11 2.16
  26  0.724  0.837  0.529-   4 1.64   9 2.05   6 2.11  12 2.16
  27  0.224  0.663  0.471-   1 1.64  12 2.05   7 2.11   9 2.16
  28  0.276  0.163  0.029-   2 1.64  11 2.05   8 2.11  10 2.16

IMPORTANT INFORMATION: All symmetrisations will be switched off!
NOSYMM: (Re-)initialisation of all symmetry stuff for point group C_1.

                                     Primitive cell

  volume of cell :     280.9022

  direct lattice vectors                    reciprocal lattice vectors
     4.713515930 -0.000000090  0.000000526     0.212155855  0.000000004 -0.000000024
    -0.000000203 10.102006351 -0.000000779     0.000000002  0.098990237  0.000000007
     0.000000657 -0.000000445  5.899327602    -0.000000019  0.000000013  0.169510844

  length of vectors
     4.713515930 10.102006351  5.899327602     0.212155855  0.098990237  0.169510844

  position of ions in fractional coordinates (direct lattice)
     0.071302094  0.594543853  0.250000123
     0.428726459  0.094606548  0.249999926
     0.928726375  0.405393469  0.749999946
     0.571302206  0.905456151  0.749999996
     0.500132911  0.500035287  0.999919698
     0.000133511  0.999964589  0.499919321
     0.500133286  0.500035375  0.500080564
     0.000133028  0.999964719  0.000080380
     0.504063787  0.773240024  0.250000101
     0.995821212  0.273241418  0.249999917
     0.495821204  0.226758592  0.749999904
     0.004063878  0.726760034  0.750000156
     0.728772591  0.593532585  0.250000041
     0.771218504  0.093563281  0.249999981
     0.271218449  0.406436705  0.749999983
     0.228772673  0.906467414  0.749999995
     0.283105981  0.945205221  0.249999921
     0.216965986  0.445186158  0.250000033
     0.716966088  0.054813833  0.749999887
     0.783105896  0.554794777  0.750000129
     0.223962760  0.663469452  0.029390396
     0.275915706  0.163479536  0.470565821
     0.775915718  0.336520487  0.529434030
     0.723962739  0.836530583  0.970609752
     0.775915644  0.336520422  0.970565756
     0.723962830  0.836530534  0.529390249
     0.223962723  0.663469426  0.470609874
     0.275915760  0.163479527  0.029434121

  ion indices of the primitive-cell ions
   primitive index   ion index
                 1           1
                 2           2
                 3           3
                 4           4
                 5           5
                 6           6
                 7           7
                 8           8
                 9           9
                10          10
                11          11
                12          12
                13          13
                14          14
                15          15
                16          16
                17          17
                18          18
                19          19
                20          20
                21          21
                22          22
                23          23
                24          24
                25          25
                26          26
                27          27
                28          28

 KPOINTS: K-points file

Automatic generation of k-mesh.
Space group operators:
 irot       det(A)        alpha          n_x          n_y          n_z        tau_x        tau_y        tau_z
    1     1.000000     0.000000     1.000000     0.000000     0.000000     0.000000     0.000000     0.000000

 Subroutine IBZKPT returns following result:

 Found     86 irreducible k-points:

 Following reciprocal coordinates:
            Coordinates               Weight
  0.000000  0.000000  0.000000      1.000000
  0.142857 -0.000000  0.000000      2.000000
  0.285714  0.000000  0.000000      2.000000
  0.428571  0.000000 -0.000000      2.000000
 -0.000000  0.250000 -0.000000      2.000000
  0.142857  0.250000  0.000000      2.000000
  0.142857 -0.250000  0.000000      2.000000
  0.285714  0.250000  0.000000      2.000000
  0.285714 -0.250000  0.000000      2.000000
  0.428571  0.250000 -0.000000      2.000000
  0.428571 -0.250000  0.000000      2.000000
 -0.000000  0.500000 -0.000000      1.000000
  0.142857  0.500000  0.000000      2.000000
  0.285714  0.500000  0.000000      2.000000
  0.428571  0.500000  0.000000      2.000000
  0.000000  0.000000  0.166667      2.000000
  0.142857  0.000000  0.166667      2.000000
  0.142857 -0.000000 -0.166667      2.000000
  0.285714  0.000000  0.166667      2.000000
  0.285714 -0.000000 -0.166667      2.000000
  0.428571  0.000000  0.166667      2.000000
  0.428571 -0.000000 -0.166667      2.000000
  0.000000  0.250000  0.166667      2.000000
  0.000000 -0.250000  0.166667      2.000000
  0.142857  0.250000  0.166667      2.000000
  0.142857 -0.250000 -0.166667      2.000000
 -0.142857 -0.250000  0.166667      2.000000
 -0.142857  0.250000 -0.166667      2.000000
  0.285714  0.250000  0.166667      2.000000
  0.285714 -0.250000 -0.166667      2.000000
 -0.285714 -0.250000  0.166667      2.000000
 -0.285714  0.250000 -0.166667      2.000000
  0.428571  0.250000  0.166667      2.000000
  0.428571 -0.250000 -0.166667      2.000000
 -0.428571 -0.250000  0.166667      2.000000
 -0.428571  0.250000 -0.166667      2.000000
  0.000000  0.500000  0.166667      2.000000
  0.142857  0.500000  0.166667      2.000000
  0.142857  0.500000 -0.166667      2.000000
  0.285714  0.500000  0.166667      2.000000
  0.285714  0.500000 -0.166667      2.000000
  0.428571  0.500000  0.166667      2.000000
  0.428571  0.500000 -0.166667      2.000000
  0.000000  0.000000  0.333333      2.000000
  0.142857  0.000000  0.333333      2.000000
  0.142857 -0.000000 -0.333333      2.000000
  0.285714  0.000000  0.333333      2.000000
  0.285714 -0.000000 -0.333333      2.000000
  0.428571  0.000000  0.333333      2.000000
  0.428571 -0.000000 -0.333333      2.000000
  0.000000  0.250000  0.333333      2.000000
  0.000000 -0.250000  0.333333      2.000000
  0.142857  0.250000  0.333333      2.000000
  0.142857 -0.250000 -0.333333      2.000000
 -0.142857 -0.250000  0.333333      2.000000
 -0.142857  0.250000 -0.333333      2.000000
  0.285714  0.250000  0.333333      2.000000
  0.285714 -0.250000 -0.333333      2.000000
 -0.285714 -0.250000  0.333333      2.000000
 -0.285714  0.250000 -0.333333      2.000000
[...]
  0.000000  0.000000  0.500000      1.000000
  0.142857  0.000000  0.500000      2.000000
  0.285714  0.000000  0.500000      2.000000
  0.428571  0.000000  0.500000      2.000000
  0.000000  0.250000  0.500000      2.000000
  0.142857  0.250000  0.500000      2.000000
  0.142857 -0.250000  0.500000      2.000000
  0.285714  0.250000  0.500000      2.000000
  0.285714 -0.250000  0.500000      2.000000
[...]

 E-fermi :   4.8590     XC(G=0): -12.2580     alpha+bet :-12.2870

[...]

 k-point     1 :       0.0000    0.0000    0.0000
  band No.  band energies     occupation
      1     -62.5085      1.00000
      2     -62.5084      1.00000
      3     -62.5026      1.00000
      4     -62.5025      1.00000
      5     -62.4124      1.00000
      6     -62.4124      1.00000
      7     -62.4073      1.00000
      8     -62.4073      1.00000
      9     -62.3528      1.00000
     10     -62.3518      1.00000
     11     -62.3501      1.00000
     12     -62.3491      1.00000
     13     -62.3216      1.00000
     14     -62.3212      1.00000
     15     -62.3194      1.00000
     16     -62.3192      1.00000
     17     -62.3169      1.00000
     18     -62.3165      1.00000
     19     -62.3135      1.00000
     20     -62.3134      1.00000
     21     -62.2705      1.00000
     22     -62.2699      1.00000
     23     -62.2695      1.00000
     24     -62.2689      1.00000
     25     -16.8269      1.00000
     26     -16.5644      1.00000
     27     -16.2558      1.00000
     28     -16.0906      1.00000
     29     -15.1235      1.00000
     30     -15.0918      1.00000
     31     -15.0634      1.00000
     32     -14.9997      1.00000
     33     -14.9330      1.00000
     34     -14.7916      1.00000
     35     -14.7324      1.00000
     36     -14.6971      1.00000
     37     -14.6904      1.00000
     38     -14.6356      1.00000
     39     -14.6184      1.00000
     40     -14.5273      1.00000
     41      -3.5873      1.00000
     42      -3.3889      1.00000
     43      -2.9577      1.00000
     44      -2.9404      1.00000
     45      -2.8267      1.00000
     46      -2.5729      1.00000
     47      -2.3165      1.00000
     48      -2.2884      1.00000
     49      -2.1844      1.00000
     50      -1.7767      1.00000
     51      -1.7091      1.00000
     52      -1.5008      1.00000
     53      -1.4457      1.00000
     54      -1.2158      1.00000
     55      -1.1536      1.00000
     56      -1.1325      1.00000
     57      -0.9589      1.00000
     58      -0.9583      1.00000
     59      -0.9571      1.00000
     60      -0.9531      1.00000
[...]
    139      13.5855      0.00000
    140      13.7485      0.00000
    141      13.8126      0.00000
    142      14.0540      0.00000
    143      14.2203      0.00000
    144      14.4215      0.00000
    145      14.9276      0.00000
    146      15.0488      0.00000
    147      15.4363      0.00000
    148      15.4813      0.00000
    149      15.5073      0.00000
    150      15.7067      0.00000
    151      16.1325      0.00000
    152      16.4024      0.00000
    153      16.6733      0.00000

[...]

 spin component 2

[...]

 k-point    86 :       0.4286    0.5000    0.5000
  band No.  band energies     occupation
      1     -59.1552      1.00000
      2     -59.1552      1.00000
      3     -59.1552      1.00000
      4     -59.1552      1.00000
      5     -59.1170      1.00000
      6     -59.1170      1.00000
      7     -59.1170      1.00000
      8     -59.1170      1.00000
      9     -59.0909      1.00000
     10     -59.0909      1.00000
     11     -59.0909      1.00000
     12     -59.0909      1.00000
     13     -59.0129      1.00000
     14     -59.0129      1.00000
     15     -59.0123      1.00000
     16     -59.0123      1.00000
     17     -58.9735      1.00000
     18     -58.9735      1.00000
     19     -58.9650      1.00000
     20     -58.9650      1.00000
     21     -58.9519      1.00000
     22     -58.9519      1.00000
     23     -58.9517      1.00000
     24     -58.9517      1.00000
     25     -15.9511      1.00000
     26     -15.9511      1.00000
     27     -15.9486      1.00000
     28     -15.9486      1.00000
     29     -15.1956      1.00000
     30     -15.1956      1.00000
     31     -15.1955      1.00000
     32     -15.1955      1.00000
     33     -14.5594      1.00000
     34     -14.5594      1.00000
     35     -14.5570      1.00000
     36     -14.5570      1.00000
     37     -14.3711      1.00000
     38     -14.3711      1.00000
     39     -14.3698      1.00000
     40     -14.3698      1.00000
     41      -2.8086      1.00000
     42      -2.8086      1.00000
     43      -2.8072      1.00000
     44      -2.8072      1.00000
     45      -1.2975      1.00000
     46      -1.2975      1.00000
     47      -1.2964      1.00000
     48      -1.2964      1.00000
     49      -1.0893      1.00000
     50      -1.0893      1.00000
     51      -1.0882      1.00000
     52      -1.0882      1.00000
     53      -0.6964      1.00000
     54      -0.6964      1.00000
     55      -0.6941      1.00000
     56      -0.6941      1.00000
     57      -0.3456      1.00000
     58      -0.3456      1.00000
     59      -0.3445      1.00000
     60      -0.3445      1.00000
[...]
    139      13.6850      0.00000
    140      13.6850      0.00000
    141      14.1774      0.00000
    142      14.1774      0.00000
    143      14.1783      0.00000
    144      14.1783      0.00000
    145      15.4356      0.00000
    146      15.4356      0.00000
    147      15.4376      0.00000
    148      15.4376      0.00000
    149      16.3504      0.00000
    150      16.3504      0.00000
    151      16.3520      0.00000
    152      16.3520      0.00000
    153      16.9935      0.00000

 soft charge-density along one line, spin component           1
         0         1         2         3         4         5         6         7         8         9
 total charge-density along one line

 soft charge-density along one line, spin component           2
         0         1         2         3         4         5         6         7         8         9
 total charge-density along one line

------------------------ aborting loop because EDIFF is reached ----------------------------------------

 total charge

# of ion       s       p       d       tot
    1        0.669   1.016   0.000   1.685
    2        0.669   1.016   0.000   1.685
    3        0.669   1.016   0.000   1.685
    4        0.669   1.016   0.000   1.685
    5        0.214   6.180   7.869  14.263
    6        0.214   6.180   7.869  14.263
    7        0.214   6.180   7.869  14.263
    8        0.214   6.180   7.869  14.263
    9        0.201   6.166   7.838  14.206
   10        0.202   6.166   7.838  14.206
   11        0.202   6.166   7.838  14.206
   12        0.201   6.166   7.838  14.206
   13        1.564   3.622   0.000   5.185
   14        1.564   3.622   0.000   5.185
   15        1.564   3.622   0.000   5.185
   16        1.564   3.622   0.000   5.185
   17        1.565   3.602   0.000   5.166
   18        1.565   3.601   0.000   5.166
   19        1.565   3.601   0.000   5.166
   20        1.565   3.602   0.000   5.166
   21        1.565   3.589   0.000   5.154
   22        1.565   3.589   0.000   5.154
   23        1.565   3.589   0.000   5.154
   24        1.565   3.589   0.000   5.154
   25        1.565   3.589   0.000   5.154
   26        1.565   3.589   0.000   5.154
   27        1.565   3.589   0.000   5.154
   28        1.565   3.589   0.000   5.154
tot         29.377 111.055  62.827 203.259

 magnetization (x)

[...]

  FORCE on cell =-STRESS in cart. coord.  units (eV):
  Direction    XX          YY          ZZ          XY          YZ          ZX
  Alpha Z  1065.15945  1065.15945  1065.15945
  Ewald   -8031.39046 -7051.01027 -6587.66606     0.00005     0.00052    -0.00113
  Hartree  3152.85791  4327.76251  4583.89330     0.00000     0.00033    -0.00075
  E(xc)   -1623.42468 -1621.22480 -1621.63584     0.00000     0.00000    -0.00000
  Local     759.48372 -1435.78513 -2140.80194    -0.00005    -0.00086     0.00190
  n-local  -935.26120  -951.85757  -945.42293    -0.00000     0.00000    -0.00000
  augment  1600.07165  1605.42327  1601.62538     0.00000     0.00000    -0.00000
  Kinetic  4012.51441  4061.45075  4044.90780     0.00001     0.00001    -0.00004
  Fock        0.00000     0.00000     0.00000     0.00000     0.00000     0.00000
  Total       0.01078    -0.08178     0.05916     0.00001     0.00001    -0.00003
  in kB       0.06150    -0.46644     0.33742     0.00003     0.00005    -0.00018

 VOLUME and BASIS-vectors are now :
  energy-cutoff  :      520.00
  volume of cell :      280.90
      direct lattice vectors                 reciprocal lattice vectors
     4.713515930 -0.000000090  0.000000526     0.212155855  0.000000004 -0.000000024
    -0.000000203 10.102006351 -0.000000779     0.000000002  0.098990237  0.000000007
     0.000000657 -0.000000445  5.899327602    -0.000000019  0.000000013  0.169510844

  length of vectors
     4.713515930 10.102006351  5.899327602     0.212155855  0.098990237  0.169510844

 FORCES acting on ions
    electron-ion (+dipol)            ewald-force                    non-local-force                 convergence-correction
   0.866E+02 -.206E+02 -.691E-04   -.847E+02 0.205E+02 0.616E-04   -.184E+01 0.786E-01 0.602E-05   0.993E-04 0.787E-04 -.520E-07
   -.868E+02 -.208E+02 0.535E-04   0.849E+02 0.207E+02 -.506E-04   0.184E+01 0.613E-01 -.212E-06   -.101E-03 0.820E-04 0.344E-06
   -.868E+02 0.208E+02 0.690E-05   0.849E+02 -.207E+02 0.661E-05   0.184E+01 -.613E-01 -.107E-04   -.101E-03 -.820E-04 0.509E-06
   0.866E+02 0.206E+02 -.743E-05   -.847E+02 -.205E+02 -.256E-05   -.184E+01 -.786E-01 0.533E-05   0.984E-04 -.787E-04 0.644E-06
   0.489E+00 -.989E-02 -.694E+00   -.482E+00 -.319E-01 0.703E+00   -.612E-03 0.452E-01 -.964E-02   0.169E-04 -.272E-04 -.488E-05
   0.490E+00 0.102E-01 -.696E+00   -.483E+00 0.315E-01 0.704E+00   -.620E-03 -.452E-01 -.964E-02   0.242E-04 0.317E-04 -.912E-05
   0.489E+00 -.102E-01 0.695E+00   -.483E+00 -.315E-01 -.703E+00   -.601E-03 0.452E-01 0.962E-02   0.141E-04 -.279E-04 0.126E-04
   0.489E+00 0.987E-02 0.695E+00   -.483E+00 0.319E-01 -.704E+00   -.606E-03 -.452E-01 0.965E-02   0.200E-04 0.286E-04 0.226E-05
   -.352E+02 -.127E+03 0.195E-03   0.366E+02 0.131E+03 -.184E-03   -.132E+01 -.351E+01 -.110E-04   0.265E-03 -.143E-03 -.143E-05
   0.351E+02 -.128E+03 -.212E-04   -.365E+02 0.131E+03 0.257E-05   0.145E+01 -.355E+01 -.156E-05   -.345E-04 -.313E-03 0.874E-07
   0.351E+02 0.128E+03 0.208E-03   -.365E+02 -.131E+03 -.217E-03   0.145E+01 0.355E+01 0.552E-05   -.337E-04 0.305E-03 0.108E-05
   -.352E+02 0.127E+03 -.216E-03   0.366E+02 -.131E+03 0.243E-03   -.132E+01 0.351E+01 -.145E-04   0.264E-03 0.144E-03 -.229E-05
   -.219E+03 -.379E+02 0.298E-03   0.199E+03 0.395E+02 -.333E-03   0.199E+02 -.161E+01 0.372E-04   -.783E-03 0.610E-04 -.974E-08
   0.219E+03 -.379E+02 -.469E-03   -.199E+03 0.394E+02 0.514E-03   -.199E+02 -.159E+01 -.464E-04   0.785E-03 0.629E-04 0.271E-07
   0.219E+03 0.379E+02 0.132E-03   -.199E+03 -.394E+02 -.131E-03   -.199E+02 0.159E+01 -.833E-07   0.785E-03 -.618E-04 0.414E-06
   -.219E+03 0.379E+02 -.156E-03   0.199E+03 -.395E+02 0.160E-03   0.199E+02 0.161E+01 -.517E-05   -.783E-03 -.600E-04 -.415E-06
   -.112E+03 0.432E+02 0.764E-03   0.106E+03 -.646E+02 -.822E-03   0.618E+01 0.214E+02 0.543E-04   -.400E-03 -.776E-03 0.930E-07
   0.112E+03 0.433E+02 -.570E-03   -.105E+03 -.647E+02 0.608E-03   -.624E+01 0.214E+02 -.328E-04   0.400E-03 -.779E-03 -.553E-06
   0.112E+03 -.433E+02 0.440E-03   -.105E+03 0.647E+02 -.487E-03   -.624E+01 -.214E+02 0.439E-04   0.401E-03 0.783E-03 0.459E-06
   -.112E+03 -.432E+02 -.334E-03   0.106E+03 0.646E+02 0.376E-03   0.618E+01 -.214E+02 -.415E-04   -.399E-03 0.776E-03 -.769E-07
   0.818E+02 -.525E+02 0.182E+02   -.724E+02 0.647E+02 -.367E+02   -.938E+01 -.122E+02 0.185E+02   0.374E-03 0.430E-03 -.646E-03
   -.819E+02 -.529E+02 -.184E+02   0.725E+02 0.651E+02 0.369E+02   0.939E+01 -.122E+02 -.185E+02   -.379E-03 0.432E-03 0.642E-03
   -.819E+02 0.529E+02 0.184E+02   0.725E+02 -.651E+02 -.369E+02   0.939E+01 0.122E+02 0.185E+02   -.380E-03 -.435E-03 -.639E-03
   0.818E+02 0.525E+02 -.182E+02   -.724E+02 -.647E+02 0.367E+02   -.938E+01 0.122E+02 -.185E+02   0.375E-03 -.431E-03 0.647E-03
   -.819E+02 0.529E+02 -.184E+02   0.725E+02 -.651E+02 0.369E+02   0.939E+01 0.122E+02 -.185E+02   -.378E-03 -.434E-03 0.639E-03
   0.818E+02 0.525E+02 0.182E+02   -.724E+02 -.647E+02 -.367E+02   -.938E+01 0.122E+02 0.185E+02   0.375E-03 -.431E-03 -.647E-03
   0.818E+02 -.525E+02 -.182E+02   -.724E+02 0.647E+02 0.367E+02   -.938E+01 -.122E+02 -.185E+02   0.375E-03 0.431E-03 0.646E-03
   -.819E+02 -.529E+02 0.184E+02   0.725E+02 0.651E+02 -.369E+02   0.939E+01 -.122E+02 0.185E+02   -.378E-03 0.432E-03 -.642E-03
   -.546E-01 0.788E-04 0.201E-04   0.995E-13 0.853E-13 0.711E-13   0.144E+00 -.123E-03 -.324E-04   0.521E-03 -.167E-05 0.808E-06

 POSITION                                       TOTAL-FORCE (eV/Angst)
      0.33608      6.00609      1.47483        -0.002460     -0.006548     -0.000001
      2.02081      0.95572      1.47483        -0.001075     -0.007157      0.000003
      4.37757      4.09529      4.42450        -0.001076      0.007158      0.000003
      2.69284      9.14692      4.42450        -0.002462      0.006553     -0.000003
      2.35738      5.05136      5.89885         0.001895      0.002788      0.000325
      0.00063     10.10165      2.94919         0.001905     -0.002809      0.000332
      2.35739      5.05136      2.95014         0.001912      0.002802     -0.000330
      0.00063     10.10165      0.00047         0.001896     -0.002796     -0.000326
      2.37591      7.81128      1.47483        -0.003228      0.000508      0.000001
      4.69382      2.76029      1.47483         0.022662     -0.008915     -0.000021
      2.33706      2.29072      4.42450         0.022665      0.008911     -0.000004
      0.01916      7.34173      4.42450        -0.003241     -0.000536      0.000013
      3.43508      5.99587      1.47483        -0.005677     -0.008126      0.000002
      3.63515      0.94518      1.47483         0.001253     -0.007692     -0.000001
      1.27839      4.10583      4.42450         0.001250      0.007697      0.000002
      1.07832      9.15714      4.42450        -0.005675      0.008130     -0.000001
      1.33442      9.54847      1.47483        -0.008616     -0.004755     -0.000003
      1.02267      4.49727      1.47483         0.004632     -0.004956      0.000005
      3.37943      0.55373      4.42450         0.004635      0.004963     -0.000002
      3.69118      5.60454      4.42450        -0.008616      0.004761      0.000001
      1.05565      6.70237      0.17338         0.000559     -0.018062     -0.003232
      1.30053      1.65147      2.77602        -0.006204     -0.017686      0.003337
      3.65729      3.39953      3.12330        -0.006206      0.017693     -0.003333
      3.41241      8.45064      5.72594         0.000561      0.018066      0.003233
      3.65729      3.39953      5.72569        -0.006205      0.017690      0.003343
      3.41241      8.45064      3.12305         0.000562      0.018066     -0.003232
      1.05565      6.70237      2.77628         0.000562     -0.018063      0.003230
      1.30053      1.65147      0.17364        -0.006208     -0.017685     -0.003341
    total drift:                                0.090251     -0.000046     -0.000011

  FREE ENERGIE OF THE ION-ELECTRON SYSTEM (eV)
  free  energy   TOTEN  =      -320.78698031 eV

  energy  without entropy=     -320.78698031  energy(sigma->0) =     -320.78698031

 reached required accuracy - stopping structural energy minimisation

 total charge

[...]

 magnetization (x)

# of ion       s       p       d       tot
    1       -0.000   0.005   0.000   0.005
    2       -0.000   0.005   0.000   0.005
    3       -0.000   0.005   0.000   0.005
    4       -0.000   0.005   0.000   0.005
    5       -0.004  -0.000   1.734   1.730
    6       -0.004  -0.000   1.734   1.730
    7       -0.004  -0.000   1.734   1.730
    8       -0.004  -0.000   1.734   1.730
    9       -0.002   0.002   1.764   1.763
   10       -0.003   0.002   1.764   1.762
   11       -0.003   0.002   1.764   1.762
   12       -0.002   0.002   1.764   1.763
   13        0.013   0.081   0.000   0.094
   14        0.013   0.081   0.000   0.094
   15        0.013   0.081   0.000   0.094
   16        0.013   0.081   0.000   0.094
   17        0.013   0.097   0.000   0.110
   18        0.013   0.097   0.000   0.110
   19        0.013   0.097   0.000   0.110
   20        0.013   0.097   0.000   0.110
   21        0.012   0.095   0.000   0.107
   22        0.012   0.095   0.000   0.107
   23        0.012   0.095   0.000   0.107
   24        0.012   0.095   0.000   0.107
   25        0.012   0.095   0.000   0.107
   26        0.012   0.095   0.000   0.107
   27        0.012   0.095   0.000   0.107
   28        0.012   0.095   0.000   0.107
tot          0.177   1.493  13.990  15.661