 vasp.6.3.0 20Jan22 (build Apr 15 2022 04:40:24) complex
 executed on              LinuxNV date 2022.06.10  02:12:54

 INCAR:
   ALGO = ALL
   EDIFF = 1E-5
   EDIFFG = -0.03
   ENCUT = 520
   IBRION = 2
   ICHARG = 2
   ISIF = 3
   ISYM = 0
   ISPIN = 2
   LREAL = Auto
   NELMIN = 6
   NELM = 150
   NSW = 199
   PREC = Accurate
   ISMEAR = 0
   SIGMA = 0.05
   MAGMOM = 1*0.6 2*4.0 2*5.0 6*0.6 24*0.6
   LWAVE = False
   LORBIT = 11
   LPLANE = True
   NCORE = 16
   NSIM = 4

 POTCAR:    PAW_PBE Ca_sv 06Sep2000
 POTCAR:    PAW_PBE Mn_pv 02Aug2007
 POTCAR:    PAW_PBE S 06Sep2000
 POTCAR:    PAW_PBE O 08Apr2002
 POTCAR:    PAW_PBE Ca_sv 06Sep2000
   VRHFIN =Ca: 3s3p4s

   TITEL  = PAW_PBE Ca_sv 06Sep2000
   POMASS =   40.078; ZVAL   =   10.000    mass and valenz
   ENMAX  =  266.622; ENMIN  =  199.967 eV

 POTCAR:    PAW_PBE Mn_pv 02Aug2007
   VRHFIN =Mn: 3p4s3d

   TITEL  = PAW_PBE Mn_pv 02Aug2007
   POMASS =   54.938; ZVAL   =   13.000    mass and valenz
   ENMAX  =  269.864; ENMIN  =  202.398 eV

 POTCAR:    PAW_PBE S 06Sep2000
   VRHFIN =S : s2p4

   TITEL  = PAW_PBE S 06Sep2000
   POMASS =   32.066; ZVAL   =    6.000    mass and valenz
   ENMAX  =  258.689; ENMIN  =  194.016 eV

 POTCAR:    PAW_PBE O 08Apr2002
   VRHFIN =O: s2p4

   TITEL  = PAW_PBE O 08Apr2002
   POMASS =   16.000; ZVAL   =    6.000    mass and valenz
   ENMAX  =  400.000; ENMIN  =  300.000 eV

 Optimization of the real space projectors (new method)

 maximal supplied QI-value         = 16.25
 optimisation between [QCUT,QGAM] = [ 11.54, 23.24] = [ 37.28,151.24] Ry
 Optimized for a Real-space Cutoff    1.58 Angstroem

   l    n(q)    QCUT    max X(q) W(low)/X(q) W(high)/X(q)  e(spline)
   0     11    11.539    11.817    0.25E-04    0.22E-05    0.26E-07
   0     11    11.539     8.461    0.39E-04    0.49E-05    0.55E-07
   1     11    11.539     3.957    0.21E-05    0.44E-05    0.32E-07
   1     11    11.539     4.314    0.56E-04    0.44E-04    0.19E-06
   2     10    11.539    14.565    0.25E-03    0.21E-04    0.75E-06
   2     10    11.539    14.552    0.23E-03    0.22E-04    0.72E-06
 Optimization of the real space projectors (new method)

[...]

   l    n(q)    QCUT    max X(q) W(low)/X(q) W(high)/X(q)  e(spline)
   0      8    11.508   187.594    0.96E-04    0.18E-03    0.54E-07
   0      8    11.508   164.243    0.96E-04    0.18E-03    0.54E-07
   1      8    11.508    67.533    0.18E-03    0.65E-04    0.94E-07
   1      8    11.508    50.729    0.18E-03    0.63E-04    0.92E-07
 Optimization of the real space projectors (new method)

 maximal supplied QI-value         = 24.76
 optimisation between [QCUT,QGAM] = [ 11.64, 23.27] = [ 37.91,151.63] Ry
 Optimized for a Real-space Cutoff    1.14 Angstroem

   l    n(q)    QCUT    max X(q) W(low)/X(q) W(high)/X(q)  e(spline)
   0      8    11.635    20.381    0.10E-03    0.33E-03    0.24E-06
   0      8    11.635    15.268    0.11E-03    0.35E-03    0.26E-06
   1      7    11.635     5.964    0.24E-03    0.31E-03    0.30E-06
   1      7    11.635     5.382    0.22E-03    0.25E-03    0.26E-06
  PAW_PBE Ca_sv 06Sep2000               :
  PAW_PBE Mn_pv 02Aug2007               :
  PAW_PBE S 06Sep2000                   :
  PAW_PBE O 08Apr2002                   :

 POSCAR: Mn4 S6 O24
  positions in direct lattice
  velocities in cartesian coordinates
 exchange correlation table for  LEXCH =        8
   RHO(1)=    0.500       N(1)  =     2000
   RHO(2)=  100.500       N(2)  =     4000

 ion  position               nearest neighbor table
   1  0.499  0.494  0.500-  12 2.42  23 2.42  21 2.48  16 2.49  14 2.55  19 2.57
   2  0.648  0.649  0.647-  25 2.08  27 2.10  29 2.11  16 2.22  12 2.24  14 2.25
   3  0.157  0.146  0.148-  28 1.94  17 1.95  24 1.96  15 1.97  26 2.19  13 2.21
   4  0.838  0.849  0.847-  33 1.94  18 1.94  35 1.96  22 1.97  31 2.20  20 2.21
   5  0.348  0.346  0.347-  32 2.09  34 2.09  30 2.11  21 2.22  23 2.23  19 2.26
   6  0.953  0.242  0.537-  30 1.46  22 1.49  14 1.49  24 1.51
   7  0.447  0.056  0.750-  25 1.47  31 1.48  21 1.50  17 1.50
   8  0.548  0.939  0.245-  32 1.47  26 1.48  16 1.50  18 1.50
   9  0.748  0.464  0.042-  13 1.46  27 1.47  23 1.51  33 1.53
  10  0.246  0.531  0.953-  20 1.46  34 1.47  12 1.51  28 1.53
  11  0.042  0.753  0.458-  29 1.46  15 1.49  19 1.49  35 1.51
  12  0.383  0.608  0.748-  10 1.51   2 2.24   1 2.42
  13  0.945  0.340  0.015-   9 1.46   3 2.21
  14  0.754  0.372  0.611-   6 1.49   2 2.25   1 2.55
  15  0.022  0.958  0.325-  11 1.49   3 1.97
  16  0.631  0.741  0.372-   8 1.50   2 2.22   1 2.49
  17  0.307  0.020  0.959-   7 1.50   3 1.95
  18  0.688  0.974  0.036-   8 1.50   4 1.94
  19  0.241  0.623  0.385-  11 1.49   5 2.26   1 2.57
  20  0.050  0.656  0.980-  10 1.46   4 2.21
  21  0.362  0.254  0.623-   7 1.50   5 2.22   1 2.48
  22  0.973  0.036  0.669-   6 1.49   4 1.97
  23  0.612  0.387  0.247-   9 1.51   5 2.23   1 2.42
  24  0.986  0.271  0.340-   6 1.51   3 1.96
  25  0.480  0.906  0.701-   7 1.47   2 2.08
  26  0.370  0.945  0.274-   8 1.48   3 2.19
  27  0.698  0.488  0.902-   9 1.47   2 2.10
  28  0.285  0.335  0.966-  10 1.53   3 1.94
  29  0.906  0.705  0.473-  11 1.46   2 2.11
  30  0.090  0.290  0.521-   6 1.46   5 2.11
  31  0.624  0.053  0.720-   7 1.48   4 2.20
  32  0.516  0.088  0.294-   8 1.47   5 2.09
  33  0.709  0.661  0.027-   9 1.53   4 1.94
  34  0.297  0.506  0.093-  10 1.47   5 2.09
  35  0.008  0.724  0.655-  11 1.51   4 1.96

IMPORTANT INFORMATION: All symmetrisations will be switched off!
NOSYMM: (Re-)initialisation of all symmetry stuff for point group C_1.

                                     Primitive cell

  volume of cell :     472.0504

  direct lattice vectors                    reciprocal lattice vectors
     7.804629141  0.082453078  5.014548745     0.133556936 -0.048028478 -0.007658168
     2.796284681  6.995131210  4.896433493    -0.000216831  0.144469813 -0.002038009
     0.568469792  0.129271368  9.103270325    -0.073453390 -0.051250339  0.115165341

  length of vectors
     9.277108044  8.984772096  9.121918636     0.142136685  0.144484350  0.145893981

  position of ions in fractional coordinates (direct lattice)
     0.498648941  0.494120467  0.499553244
     0.648080305  0.649282970  0.646637066
     0.156630628  0.145884018  0.147561806
     0.837750114  0.849309460  0.847288977
     0.347520670  0.345588283  0.347304060
     0.952817444  0.241523219  0.537108541
     0.446600626  0.055548900  0.750029744
     0.547992007  0.939421350  0.244984661
     0.748255410  0.463831234  0.041965945
     0.246323924  0.531490004  0.952567925
     0.042361356  0.753142614  0.457681854
     0.382658617  0.608138921  0.747726077
     0.944842752  0.339758517  0.015090128
     0.754383686  0.371854693  0.610875702
     0.021627260  0.958484208  0.325124171
     0.631312792  0.740695320  0.371749959
     0.307252772  0.020290165  0.959231291
     0.687578104  0.974358571  0.035708944
     0.240839487  0.622728936  0.384882975
     0.049838072  0.656060954  0.979500998
     0.362193113  0.253521940  0.623266073
     0.973450856  0.036229717  0.669461543
     0.612310119  0.386948890  0.247064625
     0.985979359  0.271466982  0.340146051
     0.480394247  0.905746086  0.701266816
     0.369998985  0.945007870  0.274385303
     0.698130732  0.488227148  0.902358273
     0.284933452  0.334965940  0.966324442
     0.906082023  0.704810506  0.473238023
     0.089644585  0.289539588  0.520878414
     0.623603853  0.053111047  0.719834818
     0.516494007  0.087863254  0.294101639
     0.709047830  0.660926918  0.027373809
     0.296604730  0.506036406  0.092619637
     0.007665930  0.723932969  0.654955080

  ion indices of the primitive-cell ions
   primitive index   ion index
                 1           1
                 2           2
                 3           3
                 4           4
                 5           5
                 6           6
                 7           7
                 8           8
                 9           9
                10          10
                11          11
                12          12
                13          13
                14          14
                15          15
                16          16
                17          17
                18          18
                19          19
                20          20
                21          21
                22          22
                23          23
                24          24
                25          25
                26          26
                27          27
                28          28
                29          29
                30          30
                31          31
                32          32
                33          33
                34          34
                35          35

 KPOINTS: Fully automatic kpoint scheme

Automatic generation of k-mesh.
 Grid dimensions derived from RKLEN:
 generate k-points for:    5    5    5

 Generating k-lattice:

  Cartesian coordinates                     Fractional coordinates (reciprocal lattice)
     0.026711387 -0.009605696 -0.001531634     0.200000000 -0.000000000 -0.000000000
    -0.000043366  0.028893963 -0.000407602     0.000000000  0.200000000  0.000000000
    -0.014690678 -0.010250068  0.023033068     0.000000000 -0.000000000  0.200000000

  Length of vectors
     0.028427337  0.028896870  0.029178796

  Shift w.r.t. Gamma in fractional coordinates (k-lattice)
     0.000000000  0.000000000  0.000000000

 Subroutine IBZKPT returns following result:

 Found     63 irreducible k-points:

 Following reciprocal coordinates:
            Coordinates               Weight
  0.000000  0.000000  0.000000      1.000000
  0.200000  0.000000  0.000000      2.000000
  0.400000  0.000000  0.000000      2.000000
  0.000000  0.200000  0.000000      2.000000
  0.200000  0.200000  0.000000      2.000000
  0.400000  0.200000  0.000000      2.000000
 -0.400000  0.200000  0.000000      2.000000
 -0.200000  0.200000  0.000000      2.000000
  0.000000  0.400000  0.000000      2.000000
  0.200000  0.400000  0.000000      2.000000
  0.400000  0.400000  0.000000      2.000000
 -0.400000  0.400000  0.000000      2.000000
 -0.200000  0.400000  0.000000      2.000000
  0.000000  0.000000  0.200000      2.000000
  0.200000  0.000000  0.200000      2.000000
  0.400000  0.000000  0.200000      2.000000
 -0.400000  0.000000  0.200000      2.000000
 -0.200000  0.000000  0.200000      2.000000
  0.000000  0.200000  0.200000      2.000000
  0.200000  0.200000  0.200000      2.000000
  0.400000  0.200000  0.200000      2.000000
 -0.400000  0.200000  0.200000      2.000000
 -0.200000  0.200000  0.200000      2.000000
  0.000000  0.400000  0.200000      2.000000
  0.200000  0.400000  0.200000      2.000000
  0.400000  0.400000  0.200000      2.000000
 -0.400000  0.400000  0.200000      2.000000
 -0.200000  0.400000  0.200000      2.000000
  0.000000 -0.400000  0.200000      2.000000
  0.200000 -0.400000  0.200000      2.000000
  0.400000 -0.400000  0.200000      2.000000
 -0.400000 -0.400000  0.200000      2.000000
 -0.200000 -0.400000  0.200000      2.000000
  0.000000 -0.200000  0.200000      2.000000
[...]
     24     -18.3961      1.00000
     25     -18.3504      1.00000
     26     -18.2626      1.00000
     27     -18.2173      1.00000
     28     -18.1818      1.00000
     29     -18.1586      1.00000
     30     -18.1283      1.00000
     31     -18.1161      1.00000
     32     -18.0940      1.00000
     33     -18.0842      1.00000
     34     -18.0437      1.00000
     35     -18.0240      1.00000
     36     -18.0083      1.00000
     37     -17.9193      1.00000
     38     -17.8693      1.00000
     39     -17.8539      1.00000
     40     -17.7733      1.00000
     41      -8.7886      1.00000
     42      -8.5413      1.00000
     43      -8.4464      1.00000
     44      -8.3122      1.00000
     45      -8.2484      1.00000
     46      -8.1568      1.00000
     47      -6.6509      1.00000
     48      -6.3301      1.00000
     49      -6.2710      1.00000
     50      -6.2457      1.00000
     51      -6.1429      1.00000
     52      -6.0051      1.00000
     53      -5.9361      1.00000
     54      -5.8823      1.00000
     55      -5.7449      1.00000
     56      -5.7274      1.00000
     57      -5.6221      1.00000
     58      -5.5288      1.00000
     59      -5.4903      1.00000
     60      -5.4485      1.00000
[...]
    149       9.5900      0.00000
    150       9.6676      0.00000
    151       9.7711      0.00000
    152       9.8044      0.00000
    153       9.9065      0.00000
    154      10.0163      0.00000
    155      10.0838      0.00000
    156      10.1699      0.00000
    157      10.2454      0.00000
    158      10.3110      0.00000
    159      10.4183      0.00000
    160      10.5184      0.00000
    161      10.7533      0.00000
    162      10.8782      0.00000
    163      11.0447      0.00000
 Fermi energy:         2.3101375284

 spin component 2

[...]

 k-point    63 :      -0.2000   -0.2000    0.4000
  band No.  band energies     occupation
      1     -44.7522      1.00000
      2     -44.7485      1.00000
      3     -44.7467      1.00000
      4     -44.7414      1.00000
      5     -43.7531      1.00000
      6     -43.7489      1.00000
      7     -42.5388      1.00000
      8     -42.5269      1.00000
      9     -42.5179      1.00000
     10     -42.5067      1.00000
     11     -42.4762      1.00000
     12     -42.4669      1.00000
     13     -38.1766      1.00000
     14     -22.4183      1.00000
     15     -22.3766      1.00000
     16     -22.2084      1.00000
     17     -22.1786      1.00000
     18     -22.1500      1.00000
     19     -22.1209      1.00000
     20     -19.3047      1.00000
     21     -19.2645      1.00000
     22     -19.2406      1.00000
     23     -18.3949      1.00000
     24     -18.3534      1.00000
     25     -18.2977      1.00000
     26     -18.2113      1.00000
     27     -18.1658      1.00000
     28     -18.1277      1.00000
     29     -18.1025      1.00000
     30     -18.0804      1.00000
     31     -18.0567      1.00000
     32     -18.0457      1.00000
     33     -18.0421      1.00000
     34     -17.9826      1.00000
     35     -17.9676      1.00000
     36     -17.9574      1.00000
     37     -17.8505      1.00000
     38     -17.8235      1.00000
     39     -17.7934      1.00000
     40     -17.7383      1.00000
     41      -8.6686      1.00000
     42      -8.4033      1.00000
     43      -8.3251      1.00000
     44      -8.1840      1.00000
     45      -8.1292      1.00000
     46      -8.0339      1.00000
     47      -6.4978      1.00000
     48      -6.1436      1.00000
     49      -6.1031      1.00000
     50      -6.0794      1.00000
     51      -5.9784      1.00000
     52      -5.8442      1.00000
     53      -5.8233      1.00000
     54      -5.7351      1.00000
     55      -5.6140      1.00000
     56      -5.5693      1.00000
     57      -5.4584      1.00000
     58      -5.3823      1.00000
     59      -5.3588      1.00000
     60      -5.2967      1.00000
[...]
    149       9.8287      0.00000
    150       9.8653      0.00000
    151       9.8962      0.00000
    152       9.9504      0.00000
    153      10.0401      0.00000
    154      10.1996      0.00000
    155      10.2628      0.00000
    156      10.3465      0.00000
    157      10.3878      0.00000
    158      10.4933      0.00000
    159      10.6440      0.00000
    160      10.7802      0.00000
    161      10.8189      0.00000
    162      10.9004      0.00000
    163      11.2792      0.00000

 soft charge-density along one line, spin component            1
         0         1         2         3         4         5         6         7         8         9
 total charge-density along one line

 soft charge-density along one line, spin component            2
         0         1         2         3         4         5         6         7         8         9
 total charge-density along one line

------------------------ aborting loop because EDIFF is reached ----------------------------------------

 total charge

# of ion       s       p       d       tot
    1        2.011   5.850   0.164   8.025
    2        0.165   6.152   4.902  11.220
    3        0.244   6.270   4.818  11.333
    4        0.245   6.270   4.819  11.334
    5        0.165   6.152   4.903  11.220
    6        1.224   2.258   0.000   3.482
    7        1.225   2.259   0.000   3.485
    8        1.225   2.259   0.000   3.484
    9        1.225   2.259   0.000   3.484
   10        1.225   2.259   0.000   3.484
   11        1.224   2.258   0.000   3.481
   12        1.576   3.576   0.000   5.152
   13        1.583   3.582   0.000   5.165
   14        1.578   3.575   0.000   5.153
   15        1.575   3.587   0.000   5.163
   16        1.577   3.576   0.000   5.153
   17        1.577   3.571   0.000   5.148
   18        1.577   3.571   0.000   5.148
   19        1.578   3.574   0.000   5.152
   20        1.583   3.582   0.000   5.165
   21        1.577   3.577   0.000   5.153
   22        1.575   3.588   0.000   5.163
   23        1.575   3.576   0.000   5.152
   24        1.574   3.577   0.000   5.151
   25        1.576   3.596   0.000   5.172
   26        1.580   3.571   0.000   5.151
   27        1.575   3.598   0.000   5.173
   28        1.575   3.559   0.000   5.134
   29        1.579   3.592   0.000   5.171
   30        1.579   3.592   0.000   5.171
   31        1.580   3.569   0.000   5.149
   32        1.576   3.594   0.000   5.171
   33        1.575   3.560   0.000   5.134
   34        1.575   3.599   0.000   5.174
   35        1.574   3.578   0.000   5.152
tot         48.029 130.167  19.607 197.803

 magnetization (x)

[...]

  FORCE on cell =-STRESS in cart. coord.  units (eV):
  Direction    XX          YY          ZZ          XY          YZ          ZX
  Alpha Z   617.62374   617.62374   617.62374
  Ewald   -4002.52306 -3955.31450 -3881.08096   229.39471   220.72032  -249.06099
  Hartree  2742.34977  2829.08277  2802.35203   121.44767    86.89702  -233.07250
  E(xc)   -1221.49856 -1221.56729 -1221.21619     0.32177     0.42453    -0.00270
  Local   -2612.86958 -2748.53952 -2795.31147  -340.26868  -292.92177   475.83724
  n-local  -388.27947  -393.21381  -392.94395    -0.47543     2.33262     1.19762
  augment   491.23325   490.53639   492.28407    -4.60415    -4.98077     5.05554
  Kinetic  4374.18927  4381.63790  4378.39375    -5.90799   -12.47804    -0.02778
  Fock        0.00000     0.00000     0.00000     0.00000     0.00000     0.00000
  Total       0.22536     0.24567     0.10100    -0.09211    -0.00610    -0.07357
  in kB       0.76490     0.83384     0.34281    -0.31264    -0.02071    -0.24969

 VOLUME and BASIS-vectors are now :
  energy-cutoff  :      520.00
  volume of cell :      472.05
      direct lattice vectors                 reciprocal lattice vectors
     7.804629141  0.082453078  5.014548745     0.133556936 -0.048028478 -0.007658168
     2.796284681  6.995131210  4.896433493    -0.000216831  0.144469813 -0.002038009
     0.568469792  0.129271368  9.103270325    -0.073453390 -0.051250339  0.115165341

  length of vectors
     9.277108044  8.984772096  9.121918636     0.142136685  0.144484350  0.145893981

 FORCES acting on ions:
    Electron-Ion                     Ewald-Force                    Non-Local-Force
   -.107E+00 -.434E+01 0.256E+01   0.119E+00 0.431E+01 -.253E+01   -.120E-01 0.279E-01 -.245E-01
   -.105E+02 -.137E+02 -.220E+02   0.112E+02 0.144E+02 0.232E+02   -.667E+00 -.788E+00 -.125E+01
   0.932E+02 0.487E+02 0.110E+03   -.923E+02 -.485E+02 -.111E+03   -.876E+00 -.142E+00 0.322E+00
   -.926E+02 -.477E+02 -.110E+03   0.917E+02 0.475E+02 0.111E+03   0.866E+00 0.189E+00 -.362E+00
   0.972E+01 0.111E+02 0.237E+02   -.103E+02 -.119E+02 -.249E+02   0.642E+00 0.822E+00 0.124E+01
   -.563E+01 0.540E+01 -.821E+02   0.679E+01 -.464E+01 0.840E+02   -.120E+01 -.780E+00 -.196E+01
   0.676E+02 0.162E+02 0.463E+02   -.657E+02 -.170E+02 -.472E+02   -.201E+01 0.884E+00 0.889E+00
   -.664E+02 -.140E+02 -.457E+02   0.644E+02 0.148E+02 0.466E+02   0.210E+01 -.926E+00 -.906E+00
   0.129E+02 0.825E+02 0.440E+02   -.107E+02 -.854E+02 -.462E+02   -.225E+01 0.298E+01 0.216E+01
   -.124E+02 -.834E+02 -.448E+02   0.103E+02 0.863E+02 0.469E+02   0.222E+01 -.299E+01 -.213E+01
   0.384E+01 -.522E+01 0.819E+02   -.490E+01 0.437E+01 -.838E+02   0.109E+01 0.867E+00 0.196E+01
   -.861E+01 -.129E+03 0.507E+02   0.361E+02 0.147E+03 -.721E+02   -.275E+02 -.175E+02 0.214E+02
   -.519E+02 0.135E+03 0.152E+03   0.896E+02 -.161E+03 -.154E+03   -.378E+02 0.259E+02 0.158E+01
   0.104E+03 0.909E+01 -.637E+02   -.138E+03 0.124E+02 0.737E+02   0.340E+02 -.215E+02 -.999E+01
   0.143E+03 -.596E+02 0.165E+03   -.145E+03 0.975E+02 -.177E+03   0.246E+01 -.379E+02 0.116E+02
   -.107E+03 0.857E+02 0.582E+01   0.116E+03 -.123E+03 0.679E+01   -.923E+01 0.373E+02 -.126E+02
   0.168E+03 0.157E+03 0.110E+03   -.198E+03 -.174E+03 -.914E+02   0.298E+02 0.171E+02 -.189E+02
   -.167E+03 -.155E+03 -.112E+03   0.197E+03 0.172E+03 0.928E+02   -.297E+02 -.170E+02 0.188E+02
   -.107E+03 -.872E+01 0.605E+02   0.142E+03 -.130E+02 -.701E+02   -.342E+02 0.217E+02 0.961E+01
   0.515E+02 -.136E+03 -.153E+03   -.892E+02 0.163E+03 0.154E+03   0.377E+02 -.261E+02 -.171E+01
   0.112E+03 -.844E+02 -.311E+01   -.122E+03 0.122E+03 -.980E+01   0.974E+01 -.372E+02 0.129E+02
   -.144E+03 0.614E+02 -.165E+03   0.146E+03 -.994E+02 0.177E+03   -.244E+01 0.380E+02 -.115E+02
   0.847E+01 0.126E+03 -.510E+02   -.358E+02 -.144E+03 0.725E+02   0.274E+02 0.174E+02 -.215E+02
   0.753E+02 -.126E+03 0.253E+02   -.762E+02 0.141E+03 -.599E+02   0.840E+00 -.145E+02 0.346E+02
   0.146E+03 0.198E+02 0.904E+02   -.156E+03 -.470E+02 -.121E+03   0.105E+02 0.271E+02 0.303E+02
   0.109E+03 0.888E+02 -.265E+02   -.149E+03 -.929E+02 0.117E+02   0.400E+02 0.407E+01 0.149E+02
   0.424E+02 0.141E+03 0.101E+03   -.561E+02 -.143E+03 -.141E+03   0.137E+02 0.140E+01 0.400E+02
   -.127E+03 0.112E+02 0.783E+02   0.133E+03 -.404E+02 -.982E+02   -.610E+01 0.292E+02 0.199E+02
   0.123E+02 -.191E+02 0.194E+03   -.437E+02 0.917E+01 -.223E+03   0.314E+02 0.991E+01 0.286E+02
   -.135E+02 0.193E+02 -.193E+03   0.451E+02 -.951E+01 0.222E+03   -.316E+02 -.984E+01 -.285E+02
   -.110E+03 -.870E+02 0.243E+02   0.150E+03 0.915E+02 -.923E+01   -.398E+02 -.447E+01 -.151E+02
   -.147E+03 -.187E+02 -.914E+02   0.158E+03 0.454E+02 0.122E+03   -.110E+02 -.267E+02 -.306E+02
   0.130E+03 -.118E+02 -.782E+02   -.136E+03 0.412E+02 0.979E+02   0.637E+01 -.294E+02 -.197E+02
   -.420E+02 -.141E+03 -.101E+03   0.556E+02 0.142E+03 0.140E+03   -.136E+02 -.117E+01 -.399E+02
   -.757E+02 0.126E+03 -.239E+02   0.763E+02 -.140E+03 0.585E+02   -.596E+00 0.144E+02 -.345E+02
   -.624E-01 -.546E+00 0.408E+00   -.114E-12 0.114E-12 0.924E-13   0.615E-01 0.541E+00 -.405E+00

 POSITION                                       TOTAL-FORCE (eV/Angst)
      5.55745      3.56213      9.46750        -0.000062      0.001075     -0.001111
      7.24120      4.67885     12.31551        -0.011286     -0.021227     -0.009704
      1.71426      1.05247      2.84304        -0.007400      0.015867      0.008515
      9.39490      6.11964     16.07263         0.013622     -0.013263     -0.010796
      3.87607      2.49099      6.59641         0.013110      0.017252      0.012297
      8.41708      1.83748     10.85000         0.003170      0.008514     -0.009174
      4.06725      0.52235      9.33922         0.016886      0.008618     -0.015005
      7.04303      6.64823      9.57791        -0.017344     -0.004273      0.011993
      7.16072      3.31168      6.40531        -0.007011     -0.014328     -0.015934
      3.95017      3.86129     12.50909         0.008077      0.011948      0.012706
      2.69679      5.33099      8.06654        -0.001322     -0.010198      0.007919
      5.11210      4.38222     11.70332         0.001454      0.010416     -0.002803
      8.33279      2.45651      6.53893        -0.008317      0.016314     -0.010217
      7.27476      2.74234     11.16462        -0.005846      0.004814      0.004581
      3.03381      6.74854      7.76130        -0.011109     -0.016278     -0.008888
      7.20969      5.28137     10.17665        -0.003535      0.008859     -0.006320
      3.00003      0.29127     10.37223        -0.002651      0.005291     -0.019012
      8.11118      6.87708      8.54384         0.003886     -0.006709      0.021287
      3.83978      4.42568      7.76055         0.006787     -0.005252     -0.009845
      2.78032      4.71996     12.37894         0.011475     -0.017177      0.008993
      3.89001      1.88385      8.73135         0.005275     -0.016879      0.004796
      8.07930      0.42024     11.15310         0.004964      0.010364      0.011550
      6.00132      2.78918      7.21422        -0.003750     -0.008600      0.002499
      8.64766      2.02422      9.36990        -0.000068     -0.001392      0.007634
      6.68067      6.46608     13.22771        -0.006945      0.002369     -0.001728
      5.68620      6.67643      8.98035         0.021460     -0.005201      0.003584
      7.32684      3.58943     14.10579        -0.000238      0.013044      0.001520
      3.70979      2.49154     11.86566        -0.016385     -0.012077     -0.007651
      9.31151      5.06613     12.30266         0.007614      0.001168      0.011858
      1.80538      2.10009      6.60894        -0.004456     -0.000439     -0.017090
      5.42471      0.51599      9.94000        -0.024410      0.007444     -0.002277
      4.44392      0.69522      5.69749         0.004379      0.005232      0.006366
      7.39756      4.68527      7.04093         0.014937      0.015277      0.011690
      3.78256      3.57622      4.80825        -0.004128     -0.013235     -0.002535
      2.45647      5.14931      9.54536        -0.000834      0.002661      0.000303
    total drift:                               -0.000845     -0.005646      0.003286

  FREE ENERGIE OF THE ION-ELECTRON SYSTEM (eV)
  free  energy   TOTEN  =      -235.79757882 eV

  energy  without entropy=     -235.79757670  energy(sigma->0) =     -235.79757776

 reached required accuracy - stopping structural energy minimisation

 total charge

[...]

 magnetization (x)

# of ion       s       p       d       tot
    1        0.000   0.000   0.002   0.002
    2        0.019   0.020   4.426   4.465
    3        0.024   0.023   3.722   3.769
    4        0.025   0.023   3.718   3.766
    5        0.019   0.020   4.427   4.467
    6        0.007   0.015   0.000   0.022
    7        0.007   0.017   0.000   0.023
    8        0.007   0.017   0.000   0.024
    9        0.007   0.016   0.000   0.023
   10        0.007   0.016   0.000   0.023
   11        0.007   0.015   0.000   0.022
   12        0.005   0.007   0.000   0.012
   13        0.009   0.035   0.000   0.044
   14        0.005   0.010   0.000   0.015
   15        0.003   0.014   0.000   0.017
   16        0.005   0.028   0.000   0.033
   17        0.003   0.008   0.000   0.011
   18        0.003   0.008   0.000   0.012
   19        0.005   0.010   0.000   0.014
   20        0.009   0.035   0.000   0.044
   21        0.005   0.028   0.000   0.033
   22        0.003   0.014   0.000   0.017
   23        0.005   0.007   0.000   0.012
   24        0.002   0.009   0.000   0.012
   25        0.007   0.008   0.000   0.014
   26        0.008   0.040   0.000   0.048
   27        0.007   0.029   0.000   0.035
   28        0.003   0.008   0.000   0.010
   29        0.006   0.013   0.000   0.019
   30        0.006   0.013   0.000   0.019
   31        0.008   0.040   0.000   0.048
   32        0.007   0.008   0.000   0.014
   33        0.003   0.009   0.000   0.011
   34        0.007   0.029   0.000   0.035
   35        0.002   0.010   0.000   0.012
tot          0.252   0.602  16.295  17.149