 vasp.6.1.2 22Jul20 (build Apr 14 2021 21:39:43) complex

 executed on             LinuxIFC date 2022.05.21  01:34:30

 INCAR:
 POTCAR:    PAW_PBE Ca_sv 06Sep2000
 POTCAR:    PAW_PBE V_pv 07Sep2000
 POTCAR:    PAW_PBE P 06Sep2000
 POTCAR:    PAW_PBE O 08Apr2002
 POTCAR:    PAW_PBE Ca_sv 06Sep2000
   VRHFIN =Ca: 3s3p4s

   TITEL  = PAW_PBE Ca_sv 06Sep2000
   POMASS =   40.078; ZVAL   =   10.000    mass and valenz
   ENMAX  =  266.622; ENMIN  =  199.967 eV

   TITEL  = PAW_PBE V_pv 07Sep2000
   POMASS =   50.941; ZVAL   =   11.000    mass and valenz
   ENMAX  =  263.673; ENMIN  =  197.755 eV

   TITEL  = PAW_PBE P 06Sep2000
   POMASS =   30.974; ZVAL   =    5.000    mass and valenz
   ENMAX  =  255.040; ENMIN  =  191.280 eV

   TITEL  = PAW_PBE O 08Apr2002
   POMASS =   16.000; ZVAL   =    6.000    mass and valenz
   ENMAX  =  400.000; ENMIN  =  300.000 eV

 Optimization of the real space projectors (new method)

 maximal supplied QI-value         = 16.25
 optimisation between [QCUT,QGAM] = [ 11.54, 23.24] = [ 37.28,151.24] Ry
 Optimized for a Real-space Cutoff    1.58 Angstroem

   l    n(q)    QCUT    max X(q) W(low)/X(q) W(high)/X(q)  e(spline)
   0     11    11.539    11.817    0.25E-04    0.22E-05    0.26E-07
   0     11    11.539     8.461    0.39E-04    0.49E-05    0.55E-07
   1     11    11.539     3.957    0.21E-05    0.44E-05    0.32E-07
   1     11    11.539     4.314    0.56E-04    0.44E-04    0.19E-06
   2     10    11.539    14.565    0.25E-03    0.21E-04    0.75E-06
   2     10    11.539    14.552    0.23E-03    0.22E-04    0.72E-06
 Optimization of the real space projectors (new method)

[...]

   l    n(q)    QCUT    max X(q) W(low)/X(q) W(high)/X(q)  e(spline)
   0      8    11.508   160.924    0.96E-04    0.17E-03    0.52E-07
   0      8    11.508   130.086    0.95E-04    0.17E-03    0.51E-07
   1      8    11.508    74.434    0.16E-03    0.74E-04    0.91E-07
   1      8    11.508    49.120    0.16E-03    0.71E-04    0.89E-07
 Optimization of the real space projectors (new method)

 maximal supplied QI-value         = 24.76
 optimisation between [QCUT,QGAM] = [ 11.64, 23.27] = [ 37.91,151.63] Ry
 Optimized for a Real-space Cutoff    1.14 Angstroem

   l    n(q)    QCUT    max X(q) W(low)/X(q) W(high)/X(q)  e(spline)
   0      8    11.635    20.381    0.10E-03    0.33E-03    0.24E-06
   0      8    11.635    15.268    0.11E-03    0.35E-03    0.26E-06
   1      7    11.635     5.964    0.24E-03    0.31E-03    0.30E-06
   1      7    11.635     5.382    0.22E-03    0.25E-03    0.26E-06
  PAW_PBE Ca_sv 06Sep2000               :
  PAW_PBE V_pv 07Sep2000                :
  PAW_PBE P 06Sep2000                   :
  PAW_PBE O 08Apr2002                   :

 POSCAR: Ca1 V4 P6 O24
  positions in direct lattice
  velocities in cartesian coordinates
 exchange correlation table for  LEXCH =        8
   RHO(1)=    0.500       N(1)  =     2000
   RHO(2)=  100.500       N(2)  =     4000

 ion  position               nearest neighbor table
   1  0.497  0.497  0.499-  23 2.41  16 2.42  12 2.42  14 2.42  21 2.42  19 2.42
   2  0.645  0.644  0.644-  27 1.87  29 1.87  25 1.87  14 2.01  16 2.01  12 2.01
   3  0.140  0.141  0.140-  15 1.91  17 1.91  13 1.91  28 1.93  26 1.93  24 1.93
   4  0.855  0.855  0.855-  18 1.91  22 1.91  20 1.92  31 1.93  35 1.93  33 1.93
   5  0.351  0.350  0.351-  34 1.87  32 1.87  30 1.87  23 2.01  19 2.01  21 2.01
   6  0.248  0.529  0.960-  22 1.53  24 1.54  30 1.54  14 1.55
   7  0.034  0.747  0.465-  17 1.53  31 1.54  25 1.55  21 1.55
   8  0.961  0.248  0.529-  18 1.53  26 1.54  32 1.55  16 1.55
   9  0.465  0.034  0.747-  13 1.53  33 1.54  27 1.54  23 1.55
  10  0.530  0.961  0.248-  20 1.53  28 1.54  34 1.55  12 1.55
  11  0.747  0.465  0.034-  15 1.53  35 1.54  29 1.54  19 1.55
  12  0.580  0.763  0.408-  10 1.55   2 2.01   1 2.42
  13  0.299  0.033  0.940-   9 1.53   3 1.91
  14  0.407  0.581  0.764-   6 1.55   2 2.01   1 2.42
  15  0.939  0.299  0.035-  11 1.53   3 1.91
  16  0.763  0.407  0.581-   8 1.55   2 2.01   1 2.42
  17  0.034  0.940  0.299-   7 1.53   3 1.91
  18  0.961  0.055  0.695-   8 1.53   4 1.91
  19  0.587  0.415  0.232-  11 1.55   5 2.01   1 2.42
  20  0.696  0.961  0.056-  10 1.53   4 1.92
  21  0.232  0.588  0.414-   7 1.55   5 2.01   1 2.42
  22  0.055  0.696  0.961-   6 1.53   4 1.91
  23  0.414  0.232  0.588-   9 1.55   5 2.01   1 2.41
  24  0.246  0.344  0.982-   6 1.54   3 1.93
  25  0.873  0.698  0.496-   7 1.55   2 1.87
  26  0.985  0.247  0.343-   8 1.54   3 1.93
  27  0.498  0.873  0.698-   9 1.54   2 1.87
  28  0.344  0.986  0.245-  10 1.54   3 1.93
  29  0.698  0.496  0.873-  11 1.54   2 1.87
  30  0.297  0.497  0.123-   6 1.54   5 1.87
  31  0.010  0.749  0.651-   7 1.54   4 1.93
  32  0.122  0.297  0.499-   8 1.55   5 1.87
  33  0.651  0.012  0.750-   9 1.54   4 1.93
  34  0.499  0.122  0.298-  10 1.55   5 1.87
  35  0.749  0.652  0.010-  11 1.54   4 1.93

IMPORTANT INFORMATION: All symmetrisations will be switched off!
NOSYMM: (Re-)initialisation of all symmetry stuff for point group C_1.

                                     Primitive cell

  volume of cell :     453.9339

  direct lattice vectors                    reciprocal lattice vectors
     2.627576431  7.069018257  4.508790862    -0.001496393  0.143650391 -0.002558414
     0.214304131  0.158640048  8.782012261    -0.068721993 -0.048715212  0.116426117
     7.535313215  0.158894323  4.514299089     0.135184731 -0.048705674 -0.002419033

  length of vectors
     8.786601849  8.786058973  8.785504477     0.143680965  0.143704297  0.143711538

  position of ions in fractional coordinates (direct lattice)
     0.497042751  0.496942547  0.498568781
     0.644594438  0.644343356  0.644427434
     0.140209794  0.140652493  0.140005394
     0.854824633  0.854783417  0.854546576
     0.350606697  0.350105101  0.350966679
     0.247805348  0.529430814  0.960388322
     0.034463239  0.746991076  0.465201514
     0.960672351  0.248095875  0.529466306
     0.465461962  0.034362356  0.747356950
     0.529821850  0.960712989  0.248035575
     0.746872595  0.465399176  0.034423980
     0.579852298  0.763303519  0.407531318
     0.299070805  0.033419654  0.939947039
     0.407131226  0.581332804  0.763557182
     0.939145293  0.298576605  0.034781765
     0.763112956  0.406786141  0.581178240
     0.034456890  0.939608886  0.298952477
     0.961452419  0.054998567  0.695257101
     0.587425895  0.414787965  0.231612296
     0.696477341  0.960644930  0.055712461
     0.231689521  0.587780065  0.414145865
     0.055352717  0.696037554  0.960739153
     0.413855153  0.231672089  0.588246637
     0.245600883  0.344272524  0.982008962
     0.873072165  0.697733772  0.496281298
     0.984622789  0.246933072  0.342765777
     0.497804466  0.872614200  0.697850150
     0.343597211  0.986108186  0.244765251
     0.697963504  0.496378777  0.872884953
     0.296510049  0.496607747  0.122877335
     0.010378626  0.749279527  0.651385256
     0.121973474  0.297049849  0.498891418
     0.651101947  0.011607683  0.749537936
     0.498971870  0.121517711  0.297998319
     0.749404843  0.651528976  0.010104299

  ion indices of the primitive-cell ions
   primitive index   ion index
                 1           1
                 2           2
                 3           3
                 4           4
                 5           5
                 6           6
                 7           7
                 8           8
                 9           9
                10          10
                11          11
                12          12
                13          13
                14          14
                15          15
                16          16
                17          17
                18          18
                19          19
                20          20
                21          21
                22          22
                23          23
                24          24
                25          25
                26          26
                27          27
                28          28
                29          29
                30          30
                31          31
                32          32
                33          33
                34          34
                35          35

 KPOINTS: Fully automatic kpoint scheme

Automatic generation of k-mesh.
 generate k-points for:    5    5    5
Space group operators:
 irot       det(A)        alpha          n_x          n_y          n_z        tau_x        tau_y        tau_z
    1     1.000000     0.000000     1.000000     0.000000     0.000000     0.000000     0.000000     0.000000

 Subroutine IBZKPT returns following result:

 Found     63 irreducible k-points:

 Following reciprocal coordinates:
            Coordinates               Weight
  0.000000  0.000000  0.000000      1.000000
  0.200000 -0.000000  0.000000      2.000000
  0.400000 -0.000000 -0.000000      2.000000
  0.000000  0.200000  0.000000      2.000000
 -0.000000  0.000000 -0.200000      2.000000
  0.200000  0.200000 -0.000000      2.000000
 -0.200000  0.000000 -0.200000      2.000000
  0.400000  0.200000 -0.000000      2.000000
 -0.400000 -0.000000 -0.200000      2.000000
 -0.400000  0.200000 -0.000000      2.000000
  0.400000  0.000000 -0.200000      2.000000
 -0.200000  0.200000  0.000000      2.000000
  0.200000  0.000000 -0.200000      2.000000
  0.000000  0.400000 -0.000000      2.000000
 -0.000000  0.000000 -0.400000      2.000000
  0.200000  0.400000  0.000000      2.000000
 -0.200000  0.000000 -0.400000      2.000000
  0.400000  0.400000  0.000000      2.000000
 -0.400000 -0.000000 -0.400000      2.000000
 -0.400000  0.400000  0.000000      2.000000
  0.400000  0.000000 -0.400000      2.000000
 -0.200000  0.400000  0.000000      2.000000
  0.200000  0.000000 -0.400000      2.000000
  0.000000  0.200000  0.200000      2.000000
  0.200000  0.200000  0.200000      2.000000
  0.400000  0.200000  0.200000      2.000000
 -0.400000  0.200000  0.200000      2.000000
 -0.200000  0.200000  0.200000      2.000000
  0.000000  0.400000  0.200000      2.000000
 -0.000000 -0.200000 -0.400000      2.000000
  0.200000  0.400000  0.200000      2.000000
 -0.200000 -0.200000 -0.400000      2.000000
  0.400000  0.400000  0.200000      2.000000
 -0.400000 -0.200000 -0.400000      2.000000
 -0.400000  0.400000  0.200000      2.000000
  0.400000 -0.200000 -0.400000      2.000000
 -0.200000  0.400000  0.200000      2.000000
  0.200000 -0.200000 -0.400000      2.000000
 -0.000000 -0.400000  0.200000      2.000000
 -0.000000 -0.200000  0.400000      2.000000
  0.200000 -0.400000  0.200000      2.000000
 -0.200000 -0.200000  0.400000      2.000000
  0.400000 -0.400000  0.200000      2.000000
 -0.400000 -0.200000  0.400000      2.000000
 -0.400000 -0.400000  0.200000      2.000000
  0.400000 -0.200000  0.400000      2.000000
 -0.200000 -0.400000  0.200000      2.000000
  0.200000 -0.200000  0.400000      2.000000
 -0.000000 -0.200000  0.200000      2.000000
  0.200000 -0.200000  0.200000      2.000000
 -0.200000 -0.200000  0.200000      2.000000
  0.400000 -0.200000  0.200000      2.000000
 -0.400000 -0.200000  0.200000      2.000000
[...]
     58      -4.6386      1.00000
     59      -4.6336      1.00000
     60      -4.3622      1.00000
[...]
    134       7.4082      0.00000
    135       7.4103      0.00000
    136       7.7031      0.00000
    137       8.7107      0.00000
    138       8.7185      0.00000
    139       9.8175      0.00000
    140       9.9711      0.00000
    141       9.9781      0.00000
    142      10.2134      0.00000
    143      10.2198      0.00000
    144      10.2462      0.00000
    145      10.3040      0.00000
    146      10.3963      0.00000
    147      10.5459      0.00000
    148      10.6642      0.00000

[...]

 spin component 2

[...]

 k-point    63 :      -0.4000   -0.4000    0.4000
  band No.  band energies     occupation
      1     -37.8243      1.00000
      2     -36.8851      1.00000
      3     -36.8781      1.00000
      4     -36.8122      1.00000
      5     -36.8062      1.00000
      6     -36.8041      1.00000
      7     -36.8034      1.00000
      8     -36.8023      1.00000
      9     -36.8018      1.00000
     10     -36.7985      1.00000
     11     -36.7959      1.00000
     12     -36.1645      1.00000
     13     -36.1636      1.00000
     14     -19.8109      1.00000
     15     -19.7114      1.00000
     16     -19.6111      1.00000
     17     -19.5994      1.00000
     18     -19.5503      1.00000
     19     -19.5372      1.00000
     20     -18.8926      1.00000
     21     -18.8772      1.00000
     22     -18.8705      1.00000
     23     -17.5292      1.00000
     24     -17.4186      1.00000
     25     -17.2542      1.00000
     26     -17.2171      1.00000
     27     -17.1901      1.00000
     28     -17.1777      1.00000
     29     -17.1427      1.00000
     30     -17.1324      1.00000
     31     -17.0163      1.00000
     32     -17.0113      1.00000
     33     -16.9985      1.00000
     34     -16.9902      1.00000
     35     -16.9791      1.00000
     36     -16.9703      1.00000
     37     -16.9605      1.00000
     38     -16.9238      1.00000
     39     -16.9134      1.00000
     40     -16.9067      1.00000
     41      -7.6405      1.00000
     42      -7.5411      1.00000
     43      -7.2838      1.00000
     44      -7.1893      1.00000
     45      -7.1109      1.00000
     46      -6.9935      1.00000
     47      -5.7430      1.00000
     48      -5.5523      1.00000
     49      -5.3192      1.00000
     50      -5.2905      1.00000
     51      -5.2015      1.00000
     52      -5.1366      1.00000
     53      -5.1161      1.00000
     54      -4.9155      1.00000
     55      -4.7334      1.00000
     56      -4.6649      1.00000
     57      -4.6035      1.00000
     58      -4.5802      1.00000
     59      -4.5141      1.00000
     60      -4.5039      1.00000
[...]
    134       7.4178      0.00000
    135       7.4219      0.00000
    136       8.3562      0.00000
    137       8.6080      0.00000
    138       8.6657      0.00000
    139       8.7418      0.00000
    140       9.3844      0.00000
    141       9.6552      0.00000
    142      10.0517      0.00000
    143      10.3244      0.00000
    144      10.3959      0.00000
    145      10.5118      0.00000
    146      10.6302      0.00000
    147      10.7212      0.00000
    148      10.7856      0.00000

 soft charge-density along one line, spin component           1
         0         1         2         3         4         5         6         7         8         9
 total charge-density along one line

 soft charge-density along one line, spin component           2
         0         1         2         3         4         5         6         7         8         9
 total charge-density along one line

------------------------ aborting loop because EDIFF is reached ----------------------------------------

 total charge

# of ion       s       p       d       tot
    1        2.018   5.860   0.194   8.072
    2        0.282   6.327   2.794   9.402
    3        0.289   6.343   2.754   9.386
    4        0.289   6.342   2.747   9.378
    5        0.282   6.327   2.792   9.401
    6        0.903   1.500   0.000   2.403
    7        0.903   1.499   0.000   2.403
    8        0.903   1.499   0.000   2.402
    9        0.903   1.499   0.000   2.403
   10        0.903   1.499   0.000   2.402
   11        0.903   1.499   0.000   2.403
   12        1.563   3.606   0.000   5.169
   13        1.567   3.590   0.000   5.158
   14        1.563   3.607   0.000   5.169
   15        1.567   3.591   0.000   5.158
   16        1.563   3.606   0.000   5.169
   17        1.567   3.591   0.000   5.158
   18        1.567   3.590   0.000   5.158
   19        1.563   3.606   0.000   5.169
   20        1.567   3.590   0.000   5.157
   21        1.563   3.606   0.000   5.169
   22        1.567   3.591   0.000   5.158
   23        1.563   3.606   0.000   5.169
   24        1.566   3.591   0.000   5.157
   25        1.565   3.595   0.000   5.160
   26        1.566   3.591   0.000   5.157
   27        1.565   3.596   0.000   5.161
   28        1.566   3.592   0.000   5.158
   29        1.566   3.596   0.000   5.161
   30        1.565   3.596   0.000   5.162
   31        1.566   3.592   0.000   5.157
   32        1.566   3.595   0.000   5.161
   33        1.566   3.591   0.000   5.157
   34        1.566   3.595   0.000   5.160
   35        1.566   3.592   0.000   5.157
tot         46.148 126.495  11.281 183.924

 magnetization (x)

[...]

  FORCE on cell =-STRESS in cart. coord.  units (eV):
  Direction    XX          YY          ZZ          XY          YZ          ZX
  Alpha Z   654.91005   654.91005   654.91005
  Ewald   -3561.12886 -3613.96176 -3343.83389    82.57148   134.86567   191.91240
  Hartree  2225.37708  2195.90095  2347.78235    46.56980    75.17174   107.74419
  E(xc)   -1120.15564 -1120.21576 -1119.89700     0.10235     0.16638     0.22972
  Local   -2098.42413 -2016.32801 -2436.67962  -128.34691  -208.96944  -298.20505
  n-local  -605.44352  -604.42096  -609.19140    -1.34726    -2.30118    -3.25984
  augment   282.68991   281.87883   285.42057     0.93532     1.65848     2.39547
  Kinetic  4222.32475  4222.33256  4221.51703    -0.48034    -0.62244    -0.92537
  Fock        0.00000     0.00000     0.00000     0.00000     0.00000     0.00000
  Total       0.14963     0.09590     0.02810     0.00444    -0.03080    -0.10849
  in kB       0.52813     0.33848     0.09916     0.01568    -0.10870    -0.38292

 VOLUME and BASIS-vectors are now :
  energy-cutoff  :      520.00
  volume of cell :      453.93
      direct lattice vectors                 reciprocal lattice vectors
     2.627576431  7.069018257  4.508790862    -0.001496393  0.143650391 -0.002558414
     0.214304131  0.158640048  8.782012261    -0.068721993 -0.048715212  0.116426117
     7.535313215  0.158894323  4.514299089     0.135184731 -0.048705674 -0.002419033

  length of vectors
     8.786601849  8.786058973  8.785504477     0.143680965  0.143704297  0.143711538

 FORCES acting on ions
    electron-ion (+dipol)            ewald-force                    non-local-force                 convergence-correction
   0.173E+01 -.387E+00 -.589E+00   -.173E+01 0.395E+00 0.601E+00   0.350E-02 -.550E-02 -.525E-02   -.374E-02 -.273E-02 -.740E-02
   -.253E+01 -.324E+01 -.591E+01   0.296E+01 0.353E+01 0.663E+01   -.446E+00 -.296E+00 -.741E+00   0.380E-02 0.282E-02 0.577E-02
   0.633E+02 0.466E+02 0.112E+03   -.632E+02 -.465E+02 -.112E+03   -.380E-01 -.433E-01 -.761E-01   0.468E-02 0.257E-02 0.912E-02
   -.655E+02 -.451E+02 -.112E+03   0.655E+02 0.451E+02 0.112E+03   0.468E-01 0.360E-01 0.805E-01   0.172E-02 0.429E-03 0.528E-02
   0.485E+01 0.186E+01 0.514E+01   -.528E+01 -.217E+01 -.587E+01   0.429E+00 0.312E+00 0.741E+00   0.125E-02 0.392E-03 0.310E-02
   0.191E+01 0.170E+02 -.457E+02   -.224E+01 -.177E+02 0.449E+02   0.341E+00 0.694E+00 0.791E+00   -.125E-01 -.158E-01 0.165E-01
   0.481E+02 0.319E+01 0.706E+01   -.478E+02 -.308E+01 -.598E+01   -.295E+00 -.119E+00 -.108E+01   0.237E-01 -.577E-02 0.513E-03
   -.476E+02 -.291E+01 -.695E+01   0.472E+02 0.286E+01 0.591E+01   0.317E+00 0.571E-01 0.105E+01   0.236E-01 -.690E-02 -.823E-02
   -.312E+01 0.437E+02 0.204E+02   0.400E+01 -.435E+02 -.197E+02   -.886E+00 -.226E+00 -.679E+00   -.812E-03 0.244E-01 0.230E-02
   0.321E+01 -.442E+02 -.192E+02   -.404E+01 0.439E+02 0.185E+02   0.838E+00 0.214E+00 0.678E+00   -.850E-02 0.245E-01 -.316E-02
   -.299E+01 -.169E+02 0.448E+02   0.331E+01 0.175E+02 -.440E+02   -.311E+00 -.661E+00 -.785E+00   -.909E-02 -.848E-02 0.203E-01
   0.747E+02 -.272E+02 0.328E+02   -.550E+02 0.345E+02 -.508E+02   -.198E+02 -.731E+01 0.180E+02   -.304E-01 0.536E-02 0.516E-02
   0.341E+02 0.723E+02 0.179E+03   -.159E+02 -.954E+02 -.187E+03   -.182E+02 0.231E+02 0.793E+01   -.414E-01 0.466E-01 -.406E-01
   0.281E+02 0.805E+02 0.112E+02   -.503E+02 -.644E+02 -.788E+01   0.222E+02 -.161E+02 -.335E+01   0.791E-02 -.305E-01 -.187E-02
   0.114E+03 0.115E+02 0.157E+03   -.113E+03 0.130E+02 -.175E+03   -.116E+01 -.244E+02 0.176E+02   -.502E-01 -.536E-01 0.543E-02
   -.305E+02 0.103E+01 0.806E+02   0.294E+02 -.275E+02 -.723E+02   0.105E+01 0.264E+02 -.826E+01   0.117E-01 0.163E-01 -.236E-01
   0.112E+03 0.105E+03 0.118E+03   -.139E+03 -.112E+03 -.106E+03   0.268E+02 0.703E+01 -.120E+02   0.400E-01 -.304E-01 -.554E-01
   -.112E+03 -.106E+03 -.117E+03   0.139E+03 0.113E+03 0.105E+03   -.267E+02 -.731E+01 0.120E+02   0.540E-01 -.386E-01 -.714E-01
   -.281E+02 -.790E+02 -.148E+02   0.503E+02 0.628E+02 0.119E+02   -.222E+02 0.162E+02 0.291E+01   -.754E-02 -.799E-02 -.237E-02
   -.358E+02 -.730E+02 -.176E+03   0.179E+02 0.961E+02 0.184E+03   0.180E+02 -.232E+02 -.764E+01   -.520E-01 0.629E-01 -.519E-01
   0.315E+02 -.121E+01 -.810E+02   -.303E+02 0.276E+02 0.727E+02   -.113E+01 -.264E+02 0.837E+01   0.279E-02 -.558E-02 -.103E-01
   -.115E+03 -.100E+02 -.157E+03   0.114E+03 -.145E+02 0.175E+03   0.991E+00 0.246E+02 -.176E+02   -.652E-01 -.716E-01 0.106E-01
   -.745E+02 0.290E+02 -.311E+02   0.549E+02 -.367E+02 0.490E+02   0.196E+02 0.771E+01 -.178E+02   -.767E-02 0.465E-02 -.810E-02
   0.990E+02 -.729E+02 -.334E+01   -.104E+03 0.781E+02 -.249E+02   0.459E+01 -.531E+01 0.282E+02   -.328E-01 0.216E-01 0.633E-01
   0.142E+03 -.778E+02 -.339E+01   -.153E+03 0.628E+02 -.163E+02   0.113E+02 0.150E+02 0.197E+02   0.228E-02 0.170E-01 0.137E-01
   0.151E+02 0.116E+03 -.353E+02   -.415E+02 -.122E+03 0.249E+02   0.264E+02 0.557E+01 0.103E+02   0.504E-01 -.378E-01 0.394E-01
   0.979E+01 0.157E+03 -.256E+02   -.180E+02 -.163E+03 0.350E+00   0.822E+01 0.547E+01 0.252E+02   0.386E-02 -.285E-02 0.218E-01
   -.863E+02 -.257E+02 0.820E+02   0.838E+02 0.273E+01 -.990E+02   0.252E+01 0.229E+02 0.170E+02   0.437E-01 0.614E-01 0.522E-02
   -.978E+02 -.425E+02 0.121E+03   0.798E+02 0.366E+02 -.141E+03   0.180E+02 0.590E+01 0.196E+02   0.186E-01 0.452E-02 0.687E-02
   0.965E+02 0.424E+02 -.119E+03   -.783E+02 -.366E+02 0.139E+03   -.182E+02 -.580E+01 -.191E+02   0.460E-02 -.287E-02 0.497E-02
   -.137E+02 -.116E+03 0.345E+02   0.399E+02 0.121E+03 -.240E+02   -.262E+02 -.555E+01 -.105E+02   0.616E-01 -.532E-01 0.538E-01
   -.142E+03 0.779E+02 0.341E+01   0.153E+03 -.629E+02 0.163E+02   -.114E+02 -.150E+02 -.197E+02   0.579E-02 0.557E-02 0.169E-02
   0.857E+02 0.244E+02 -.836E+02   -.834E+02 -.159E+01 0.101E+03   -.232E+01 -.229E+02 -.176E+02   0.617E-01 0.760E-01 0.483E-05
   -.105E+02 -.160E+03 0.254E+02   0.190E+02 0.165E+03 -.174E+00   -.850E+01 -.587E+01 -.252E+02   -.194E-02 0.267E-02 0.497E-02
   -.977E+02 0.739E+02 0.420E+01   0.102E+03 -.792E+02 0.238E+02   -.396E+01 0.532E+01 -.281E+02   -.432E-01 0.330E-01 0.809E-01
   0.736E-02 -.106E+00 -.942E-01   0.568E-13 -.142E-13 -.782E-13   -.728E-01 0.713E-01 -.983E-02   0.606E-01 0.378E-01 0.963E-01

 POSITION                                       TOTAL-FORCE (eV/Angst)
      5.16939      3.67166      8.85591        -0.002428     -0.000337     -0.000250
      6.68777      4.76126     11.47411        -0.010991     -0.005041     -0.010755
      1.45354      1.03570      2.49941         0.008505      0.012748      0.010210
      8.86858      6.31416     15.21862        -0.002196     -0.005145     -0.016075
      3.64092      2.58975      6.23981         0.002738     -0.005022      0.017815
      8.00141      1.98833     10.10225         0.000554      0.001788      0.000721
      3.75608      0.43604      8.81553         0.003430     -0.006818     -0.001918
      6.56710      6.91450      8.90042        -0.006352      0.002465     -0.002454
      6.86197      3.41456      5.77423        -0.002712      0.000435     -0.003467
      3.46706      3.93714     11.94556        -0.002296     -0.003225     -0.000051
      2.32160      5.35896      7.61003        -0.003503     -0.009417      0.007191
      4.75806      4.28483     11.15749         0.000194      0.007397     -0.002805
      7.87579      2.26879      5.88514        -0.007681     -0.007446      0.004961
      6.94799      3.09157     10.38787        -0.003278      0.002761     -0.013743
      2.79375      6.69173      7.01353        -0.002167     -0.008267      0.000558
      6.47167      5.55134      9.63673        -0.003434      0.005245      0.008654
      2.54460      0.44014      9.75658         0.002000      0.000608     -0.003146
      7.77706      6.91572      7.95658        -0.002520     -0.012429      0.013334
      3.37767      4.25513      7.33682         0.009290     -0.006981     -0.005034
      2.45573      5.08466     11.82817         0.000151      0.005384     -0.003336
      3.85546      1.79687      8.07611         0.003247      0.001527      0.002096
      7.53408      0.65436     10.69925        -0.000510      0.000335      0.008019
      5.56971      3.05577      6.55605        -0.003012      0.008591     -0.003458
      8.11886      1.94681      8.56385         0.008596     -0.010721     -0.000758
      6.18323      6.36131     12.30437         0.000198      0.002289      0.002000
      5.22294      7.05395      8.15537        -0.001899      0.009333     -0.026275
      6.75354      3.76830     13.05811        -0.006972     -0.007842      0.007158
      2.95854      2.62422     11.31417        -0.005615     -0.003125     -0.013370
      8.51779      5.15136     11.44664         0.006954      0.002659      0.000745
      1.81145      2.19434      6.25282        -0.003773      0.012456      0.008201
      5.09624      0.29573      9.56752         0.002799     -0.003243      0.010895
      4.14346      0.98863      5.41079         0.001445      0.002101     -0.000101
      7.36131      4.72359      6.42126         0.020014      0.006516     -0.001994
      3.58264      3.59387      4.66218        -0.006122     -0.001585     -0.006205
      2.18488      5.40252      9.14626         0.007348      0.012004      0.012638
    total drift:                               -0.004750      0.002596     -0.007728

  FREE ENERGIE OF THE ION-ELECTRON SYSTEM (eV)
  free  energy   TOTEN  =      -270.56572481 eV

  energy  without entropy=     -270.54341936  energy(sigma->0) =     -270.55457209

 reached required accuracy - stopping structural energy minimisation

 total charge

[...]

 magnetization (x)

# of ion       s       p       d       tot
    1        0.001  -0.000   0.001   0.001
    2        0.006   0.009   1.083   1.099
    3        0.005   0.008   0.917   0.931
    4        0.005   0.008   0.911   0.924
    5        0.006   0.009   1.082   1.097
    6        0.003   0.008   0.000   0.010
    7        0.003   0.008   0.000   0.010
    8        0.003   0.008   0.000   0.010
    9        0.003   0.008   0.000   0.010
   10        0.003   0.008   0.000   0.010
   11        0.003   0.008   0.000   0.010
   12       -0.000  -0.012   0.000  -0.012
   13       -0.001  -0.014   0.000  -0.015
   14       -0.000  -0.012   0.000  -0.012
   15       -0.001  -0.015   0.000  -0.015
   16       -0.000  -0.012   0.000  -0.012
   17       -0.001  -0.014   0.000  -0.015
   18       -0.001  -0.015   0.000  -0.015
   19       -0.000  -0.012   0.000  -0.012
   20       -0.001  -0.014   0.000  -0.015
   21       -0.000  -0.012   0.000  -0.012
   22       -0.001  -0.015   0.000  -0.015
   23       -0.000  -0.012   0.000  -0.012
   24       -0.001  -0.021   0.000  -0.022
   25       -0.000  -0.020   0.000  -0.021
   26       -0.001  -0.021   0.000  -0.022
   27       -0.000  -0.020   0.000  -0.021
   28       -0.001  -0.021   0.000  -0.022
   29       -0.000  -0.020   0.000  -0.021
   30       -0.000  -0.020   0.000  -0.020
   31       -0.001  -0.021   0.000  -0.022
   32       -0.000  -0.020   0.000  -0.021
   33       -0.001  -0.021   0.000  -0.022
   34       -0.000  -0.020   0.000  -0.021
   35       -0.001  -0.021   0.000  -0.022
tot          0.028  -0.330   3.995   3.693