 vasp.6.1.2 22Jul20 (build Dec 05 2020 14:50:36) complex

 executed on         CrayXC-Intel date 2021.06.03  17:17:51

 INCAR:
 POTCAR:    PAW_PBE Ca_sv 06Sep2000
 POTCAR:    PAW_PBE Si 05Jan2001
 POTCAR:    PAW_PBE O 08Apr2002
 POTCAR:    PAW_PBE Ca_sv 06Sep2000
   VRHFIN =Ca: 3s3p4s

   TITEL  = PAW_PBE Ca_sv 06Sep2000
   POMASS =   40.078; ZVAL   =   10.000    mass and valenz
   ENMAX  =  266.622; ENMIN  =  199.967 eV

 POTCAR:    PAW_PBE Si 05Jan2001
   VRHFIN =Si: s2p2

   TITEL  = PAW_PBE Si 05Jan2001
   POMASS =   28.085; ZVAL   =    4.000    mass and valenz
   ENMAX  =  245.345; ENMIN  =  184.009 eV

 POTCAR:    PAW_PBE O 08Apr2002
   VRHFIN =O: s2p4

   TITEL  = PAW_PBE O 08Apr2002
   POMASS =   16.000; ZVAL   =    6.000    mass and valenz
   ENMAX  =  400.000; ENMIN  =  300.000 eV

 Optimization of the real space projectors (new method)

 maximal supplied QI-value         = 16.25
 optimisation between [QCUT,QGAM] = [ 11.54, 23.24] = [ 37.28,151.24] Ry
 Optimized for a Real-space Cutoff    1.58 Angstroem

   l    n(q)    QCUT    max X(q) W(low)/X(q) W(high)/X(q)  e(spline)
   0     11    11.539    11.817    0.25E-04    0.22E-05    0.26E-07
   0     11    11.539     8.461    0.39E-04    0.49E-05    0.55E-07
   1     11    11.539     3.957    0.21E-05    0.44E-05    0.32E-07
   1     11    11.539     4.314    0.56E-04    0.44E-04    0.19E-06
   2     10    11.539    14.565    0.25E-03    0.21E-04    0.75E-06
   2     10    11.539    14.552    0.23E-03    0.22E-04    0.72E-06
 Optimization of the real space projectors (new method)

[...]

   l    n(q)    QCUT    max X(q) W(low)/X(q) W(high)/X(q)  e(spline)
   0      8    11.508   159.560    0.71E-04    0.15E-03    0.51E-07
   0      8    11.508   115.863    0.70E-04    0.15E-03    0.51E-07
   1      8    11.508    88.339    0.16E-03    0.38E-04    0.82E-07
   1      8    11.508    48.592    0.15E-03    0.36E-04    0.79E-07
 Optimization of the real space projectors (new method)

 maximal supplied QI-value         = 24.76
 optimisation between [QCUT,QGAM] = [ 11.64, 23.27] = [ 37.91,151.63] Ry
 Optimized for a Real-space Cutoff    1.14 Angstroem

   l    n(q)    QCUT    max X(q) W(low)/X(q) W(high)/X(q)  e(spline)
   0      8    11.635    20.381    0.10E-03    0.33E-03    0.24E-06
   0      8    11.635    15.268    0.11E-03    0.35E-03    0.26E-06
   1      7    11.635     5.964    0.24E-03    0.31E-03    0.30E-06
   1      7    11.635     5.382    0.22E-03    0.25E-03    0.26E-06
  PAW_PBE Ca_sv 06Sep2000               :
  PAW_PBE Si 05Jan2001                  :
  PAW_PBE O 08Apr2002                   :

 POSCAR: Ca12 Si8 O28
  positions in direct lattice
  velocities in cartesian coordinates

 METAGGA = SCAN     LMAXTAU =  6    LMIXTAU =  F

 ion  position               nearest neighbor table
   1  0.509  0.441  0.290-  43 2.28  24 2.33  25 2.39  22 2.46  33 2.56  19 3.07  13 3.09
   2  0.991  0.941  0.710-  44 2.28  23 2.33  26 2.39  21 2.46  34 2.56  20 3.07  14 3.09
   3  0.491  0.559  0.710-  41 2.28  22 2.33  27 2.39  24 2.46  35 2.56  17 3.07  15 3.09
   4  0.009  0.059  0.290-  42 2.28  21 2.33  28 2.39  23 2.46  36 2.56  18 3.07  16 3.09
   5  0.668  0.925  0.209-  37 2.27  42 2.30  30 2.43  21 2.44  39 2.46  26 2.48  14 3.00  19 3.03

   6  0.832  0.425  0.791-  38 2.27  41 2.30  29 2.43  22 2.44  40 2.46  25 2.48  13 3.00  20 3.03

[...]

  21  0.857  0.102  0.421-  13 1.61   4 2.33   5 2.44   2 2.46
  22  0.643  0.602  0.579-  14 1.61   3 2.33   6 2.44   1 2.46
  23  0.143  0.898  0.579-  15 1.61   2 2.33   7 2.44   4 2.46
  24  0.357  0.398  0.421-  16 1.61   1 2.33   8 2.44   3 2.46
  25  0.678  0.260  0.508-  13 1.62  10 2.30   1 2.39   6 2.48
  26  0.822  0.760  0.492-  14 1.62   9 2.30   2 2.39   5 2.48
  27  0.322  0.740  0.492-  15 1.62  12 2.30   3 2.39   8 2.48
  28  0.178  0.240  0.508-  16 1.62  11 2.30   4 2.39   7 2.48
  29  0.912  0.397  0.550-  13 1.61  11 2.28   6 2.43   9 2.53
  30  0.588  0.897  0.450-  14 1.61  12 2.28   5 2.43  10 2.53
  31  0.088  0.603  0.450-  15 1.61   9 2.28   8 2.43  11 2.53
  32  0.412  0.103  0.550-  16 1.61  10 2.28   7 2.43  12 2.53
  33  0.703  0.346  0.211-  17 1.67  13 1.68   9 2.53   1 2.56
  34  0.797  0.846  0.789-  18 1.67  14 1.68  10 2.53   2 2.56
  35  0.297  0.654  0.789-  19 1.67  15 1.68  11 2.53   3 2.56
  36  0.203  0.154  0.211-  20 1.67  16 1.68  12 2.53   4 2.56
  37  0.599  0.105  0.975-  17 1.61   5 2.27  10 2.42   7 2.46
  38  0.901  0.605  0.025-  18 1.61   6 2.27   9 2.42   8 2.46
  39  0.401  0.895  0.025-  19 1.61   7 2.27  12 2.42   5 2.46
  40  0.099  0.395  0.975-  20 1.61   8 2.27  11 2.42   6 2.46
  41  0.644  0.359  0.845-  17 1.61   3 2.28   6 2.30
  42  0.856  0.859  0.155-  18 1.61   4 2.28   5 2.30
  43  0.356  0.641  0.155-  19 1.61   1 2.28   8 2.30
  44  0.144  0.141  0.845-  20 1.61   2 2.28   7 2.30
  45  0.427  0.339  0.933-  17 1.63  11 2.54
  46  0.073  0.839  0.067-  18 1.63  12 2.54
  47  0.573  0.661  0.067-  19 1.63   9 2.54
  48  0.927  0.161  0.933-  20 1.63  10 2.54

IMPORTANT INFORMATION: All symmetrisations will be switched off!
NOSYMM: (Re-)initialisation of all symmetry stuff for point group C_1.

                                     Primitive cell

  volume of cell :     642.1346

  direct lattice vectors                    reciprocal lattice vectors
     9.175111778 -0.000000453 -5.215775827     0.108974716  0.000000004 -0.000027762
    -0.000000329  8.899309863  0.000000187     0.000000004  0.112368264 -0.000000002
     0.002003168  0.000000164  7.863130562     0.072285165  0.000000000  0.127157395

  length of vectors
    10.554003677  8.899309863  7.863130817     0.108974720  0.112368264  0.146267386

  position of ions in fractional coordinates (direct lattice)
     0.508777172  0.440865969  0.289710848
     0.991224537  0.940865728  0.710292999
     0.491224535  0.559134258  0.710292996
     0.008777168  0.059134045  0.289710842
     0.668034518  0.925010783  0.209315969
     0.831964653  0.425010628  0.790683151
     0.331964655  0.074989378  0.790683148
     0.168034520  0.574989209  0.209315970
     0.839439619  0.592408391  0.283218396
     0.660569880  0.092404615  0.716792338
     0.160569869  0.407595394  0.716792323
     0.339439622  0.907591595  0.283218406
     0.796349036  0.266053090  0.433105087
     0.703649769  0.766051377  0.566893635
     0.203649762  0.733948481  0.566893574
     0.296349033  0.233947046  0.433105026
     0.590254602  0.285684946  0.984558395
     0.909744757  0.785683914  0.015441291
     0.409744738  0.714316009  0.015441331
     0.090254585  0.214315134  0.984558433
     0.856870937  0.102316897  0.421445713
     0.643129147  0.602314410  0.578549807
     0.143129118  0.897685666  0.578549799
     0.356870912  0.397683024  0.421445713
     0.678484949  0.260496029  0.507817185
     0.821514893  0.760499475  0.492182656
     0.321514876  0.739500537  0.492182654
     0.178484940  0.239503955  0.507817191
     0.911804178  0.397432743  0.549976011
     0.588193403  0.897432000  0.450022416
     0.088193436  0.602568055  0.450022463
     0.411804224  0.102567204  0.549976063
     0.703277827  0.346252298  0.210981271
     0.796720818  0.846250534  0.789017350
     0.296720821  0.653749491  0.789017349
     0.203277826  0.153747684  0.210981268
     0.598637148  0.105058239  0.974700986
     0.901360597  0.605057588  0.025300890
     0.401360594  0.894942464  0.025300895
     0.098637142  0.394941710  0.974700993
     0.644398473  0.359183211  0.844828397
     0.855600373  0.859186096  0.155168578
     0.355600390  0.640813924  0.155168533
     0.144398493  0.140816772  0.844828353
     0.427369167  0.338840325  0.932560380
     0.072629549  0.838836909  0.067436267
     0.572629557  0.661163104  0.067436269
     0.927369181  0.161159664  0.932560392

  ion indices of the primitive-cell ions
   primitive index   ion index
                 1           1
                 2           2
                 3           3
                 4           4
                 5           5
                 6           6
                 7           7
                 8           8
                 9           9
                10          10
                11          11
                12          12
                13          13
                14          14
                15          15
                16          16
                17          17
                18          18
                19          19
                20          20
                21          21
                22          22
                23          23
                24          24
                25          25
                26          26
                27          27
                28          28
                29          29
                30          30
                31          31
                32          32
                33          33
                34          34
                35          35
                36          36
                37          37
                38          38
                39          39
                40          40
                41          41
                42          42
                43          43
                44          44
                45          45
                46          46
                47          47
                48          48

 KPOINTS: K-points file

Automatic generation of k-mesh.
Space group operators:
 irot       det(A)        alpha          n_x          n_y          n_z        tau_x        tau_y        tau_z
    1     1.000000     0.000000     1.000000     0.000000     0.000000     0.000000     0.000000     0.000000

 Subroutine IBZKPT returns following result:

 Found     42 irreducible k-points:

 Following reciprocal coordinates:
            Coordinates               Weight
  0.000000  0.000000  0.000000      1.000000
  0.250000  0.000000  0.000000      2.000000
  0.500000  0.000000 -0.000000      1.000000
 -0.000000  0.250000  0.000000      2.000000
  0.250000  0.250000  0.000000      2.000000
 -0.250000  0.250000 -0.000000      2.000000
  0.500000  0.250000 -0.000000      2.000000
 -0.000000  0.500000  0.000000      1.000000
  0.250000  0.500000 -0.000000      2.000000
  0.500000  0.500000 -0.000000      1.000000
  0.000000  0.000000  0.200000      2.000000
  0.250000 -0.000000  0.200000      2.000000
  0.500000 -0.000000  0.200000      2.000000
 -0.250000  0.000000  0.200000      2.000000
 -0.000000  0.250000  0.200000      2.000000
  0.000000  0.250000 -0.200000      2.000000
  0.250000  0.250000  0.200000      2.000000
 -0.250000  0.250000 -0.200000      2.000000
  0.500000  0.250000  0.200000      2.000000
  0.500000  0.250000 -0.200000      2.000000
 -0.250000  0.250000  0.200000      2.000000
  0.250000  0.250000 -0.200000      2.000000
 -0.000000  0.500000  0.200000      2.000000
  0.250000  0.500000  0.200000      2.000000
  0.500000  0.500000  0.200000      2.000000
 -0.250000  0.500000  0.200000      2.000000
  0.000000  0.000000  0.400000      2.000000
  0.250000  0.000000  0.400000      2.000000
  0.500000 -0.000000  0.400000      2.000000
 -0.250000 -0.000000  0.400000      2.000000
[...]
    2        2.023   5.867   0.221   8.111
    3        2.023   5.867   0.221   8.111
    4        2.023   5.867   0.221   8.111
    5        2.026   5.876   0.242   8.144
    6        2.026   5.876   0.242   8.144
    7        2.026   5.876   0.242   8.144
    8        2.026   5.876   0.242   8.144
    9        2.022   5.867   0.217   8.106
   10        2.022   5.867   0.217   8.106
   11        2.022   5.867   0.217   8.106
   12        2.022   5.867   0.217   8.106
   13        0.665   1.032   0.000   1.698
   14        0.665   1.032   0.000   1.698
   15        0.665   1.032   0.000   1.698
   16        0.665   1.032   0.000   1.698
   17        0.664   1.034   0.000   1.698
   18        0.664   1.034   0.000   1.698
   19        0.664   1.034   0.000   1.698
   20        0.664   1.034   0.000   1.698
   21        1.565   3.603   0.000   5.167
   22        1.565   3.603   0.000   5.167
   23        1.565   3.603   0.000   5.167
   24        1.565   3.603   0.000   5.167
   25        1.567   3.607   0.000   5.174
   26        1.567   3.607   0.000   5.174
   27        1.567   3.607   0.000   5.174
   28        1.567   3.607   0.000   5.174
   29        1.567   3.608   0.000   5.175
   30        1.567   3.608   0.000   5.175
   31        1.567   3.608   0.000   5.175
   32        1.567   3.608   0.000   5.175
   33        1.565   3.693   0.000   5.258
   34        1.565   3.693   0.000   5.258
   35        1.565   3.693   0.000   5.258
   36        1.565   3.693   0.000   5.258
   37        1.567   3.612   0.000   5.178
   38        1.567   3.612   0.000   5.178
   39        1.567   3.612   0.000   5.178
   40        1.567   3.612   0.000   5.178
   41        1.567   3.617   0.000   5.184
   42        1.567   3.617   0.000   5.184
   43        1.567   3.617   0.000   5.184
   44        1.567   3.617   0.000   5.184
   45        1.562   3.561   0.000   5.123
   46        1.562   3.561   0.000   5.123
   47        1.562   3.561   0.000   5.123
   48        1.562   3.561   0.000   5.123
tot         73.442 179.912   2.722 256.076

 magnetization (x)

[...]

  FORCE on cell =-STRESS in cart. coord.  units (eV):
  Direction    XX          YY          ZZ          XY          YZ          ZX
  Alpha Z  1115.86401  1115.86401  1115.86401
  Ewald   -5811.28849 -6094.04695 -6067.11227     0.00131    -0.00078  -163.60031
  Hartree  2471.62539  2166.28109  2274.11040     0.00033    -0.00019   -39.18335
  E(xc)   -1575.60896 -1577.46825 -1575.87906    -0.00000     0.00000     0.58448
  Local   -1349.51575  -733.55642  -887.35610    -0.00154     0.00091   199.50049
  n-local  -843.26521  -829.02106  -845.47324     0.00010    -0.00005   -10.26404
  augment   506.48926   502.33815   506.15270    -0.00000     0.00000     1.19306
  Kinetic  5485.65792  5449.72489  5479.49316    -0.00002     0.00002    11.71301
  Fock        0.00000     0.00000     0.00000     0.00000     0.00000     0.00000
  Total      -0.04183     0.11546    -0.20041     0.00018    -0.00009    -0.05667
  in kB      -0.10437     0.28809    -0.50005     0.00044    -0.00022    -0.14139

 VOLUME and BASIS-vectors are now :
  energy-cutoff  :      520.00
  volume of cell :      642.13
      direct lattice vectors                 reciprocal lattice vectors
     9.175111778 -0.000000453 -5.215775827     0.108974716  0.000000004 -0.000027762
    -0.000000329  8.899309863  0.000000187     0.000000004  0.112368264 -0.000000002
     0.002003168  0.000000164  7.863130562     0.072285165  0.000000000  0.127157395

  length of vectors
    10.554003677  8.899309863  7.863130817     0.108974720  0.112368264  0.146267386

 FORCES acting on ions
    electron-ion (+dipol)            ewald-force                    non-local-force                 convergence-correction
   0.400E+02 0.824E+02 0.525E+02   -.409E+02 -.808E+02 -.497E+02   0.893E+00 -.152E+01 -.277E+01   -.145E-03 0.993E-04 0.322E-03
   -.400E+02 0.824E+02 -.525E+02   0.409E+02 -.808E+02 0.497E+02   -.894E+00 -.152E+01 0.277E+01   0.143E-03 0.893E-04 -.322E-03
   -.400E+02 -.824E+02 -.525E+02   0.409E+02 0.808E+02 0.497E+02   -.894E+00 0.152E+01 0.277E+01   0.142E-03 -.886E-04 -.321E-03
   0.400E+02 -.824E+02 0.525E+02   -.409E+02 0.808E+02 -.497E+02   0.893E+00 0.152E+01 -.277E+01   -.145E-03 -.964E-04 0.324E-03
   0.581E+02 -.480E+02 0.393E+02   -.571E+02 0.484E+02 -.404E+02   -.953E+00 -.414E+00 0.104E+01   0.113E-03 0.465E-04 -.635E-04
   -.581E+02 -.480E+02 -.393E+02   0.571E+02 0.484E+02 0.404E+02   0.952E+00 -.413E+00 -.104E+01   -.114E-03 0.507E-04 0.664E-04
   -.581E+02 0.480E+02 -.393E+02   0.571E+02 -.484E+02 0.404E+02   0.952E+00 0.413E+00 -.104E+01   -.117E-03 -.518E-04 0.654E-04
   0.581E+02 0.480E+02 0.393E+02   -.571E+02 -.484E+02 -.404E+02   -.953E+00 0.414E+00 0.104E+01   0.115E-03 -.467E-04 -.626E-04
   0.146E+02 0.753E+02 0.283E+02   -.120E+02 -.732E+02 -.272E+02   -.255E+01 -.214E+01 -.115E+01   0.139E-03 0.132E-03 0.499E-04
   -.146E+02 0.753E+02 -.283E+02   0.120E+02 -.732E+02 0.272E+02   0.256E+01 -.214E+01 0.115E+01   -.137E-03 0.129E-03 -.451E-04
   -.146E+02 -.753E+02 -.283E+02   0.120E+02 0.732E+02 0.272E+02   0.256E+01 0.214E+01 0.115E+01   -.138E-03 -.130E-03 -.484E-04
   0.146E+02 -.753E+02 0.283E+02   -.120E+02 0.732E+02 -.272E+02   -.255E+01 0.214E+01 -.115E+01   0.139E-03 -.134E-03 0.482E-04
   -.126E+02 0.273E+02 0.308E+02   0.139E+02 -.269E+02 -.264E+02   -.120E+01 -.452E+00 -.420E+01   -.494E-05 -.240E-05 0.203E-04
   0.126E+02 0.273E+02 -.308E+02   -.139E+02 -.269E+02 0.264E+02   0.120E+01 -.451E+00 0.420E+01   0.606E-05 -.228E-05 -.213E-04
   0.126E+02 -.273E+02 -.308E+02   -.139E+02 0.269E+02 0.264E+02   0.120E+01 0.451E+00 0.420E+01   0.571E-05 0.199E-05 -.206E-04
   -.126E+02 -.273E+02 0.308E+02   0.139E+02 0.269E+02 -.264E+02   -.120E+01 0.452E+00 -.420E+01   -.721E-05 0.278E-05 0.214E-04
   -.170E+02 -.164E+00 -.239E+02   0.146E+02 -.178E+01 0.198E+02   0.232E+01 0.183E+01 0.395E+01   -.177E-04 0.848E-05 -.204E-04
   0.170E+02 -.163E+00 0.239E+02   -.146E+02 -.178E+01 -.198E+02   -.232E+01 0.183E+01 -.395E+01   0.163E-04 0.889E-05 0.221E-04
   0.170E+02 0.163E+00 0.239E+02   -.146E+02 0.178E+01 -.198E+02   -.232E+01 -.183E+01 -.395E+01   0.170E-04 -.804E-05 0.214E-04
   -.170E+02 0.165E+00 -.239E+02   0.146E+02 0.178E+01 0.198E+02   0.232E+01 -.183E+01 0.395E+01   -.170E-04 -.856E-05 -.215E-04
   -.158E+01 -.755E+01 0.104E+02   0.100E+02 -.149E+02 -.156E+02   -.842E+01 0.224E+02 0.520E+01   0.171E-03 -.378E-03 -.840E-04
   0.158E+01 -.755E+01 -.104E+02   -.999E+01 -.149E+02 0.156E+02   0.842E+01 0.224E+02 -.520E+01   -.171E-03 -.373E-03 0.827E-04
   0.158E+01 0.755E+01 -.104E+02   -.999E+01 0.149E+02 0.156E+02   0.842E+01 -.224E+02 -.520E+01   -.171E-03 0.373E-03 0.832E-04
   -.158E+01 0.755E+01 0.104E+02   0.100E+02 0.149E+02 -.156E+02   -.842E+01 -.224E+02 0.520E+01   0.170E-03 0.378E-03 -.834E-04
   0.845E+02 0.580E+02 0.756E+00   -.103E+03 -.601E+02 0.176E+02   0.186E+02 0.210E+01 -.183E+02   -.221E-03 0.321E-04 0.273E-03
   -.845E+02 0.580E+02 -.757E+00   0.103E+03 -.601E+02 -.176E+02   -.186E+02 0.210E+01 0.183E+02   0.222E-03 0.335E-04 -.273E-03
   -.845E+02 -.580E+02 -.757E+00   0.103E+03 0.601E+02 -.176E+02   -.186E+02 -.210E+01 0.183E+02   0.221E-03 -.329E-04 -.273E-03
   0.845E+02 -.580E+02 0.756E+00   -.103E+03 0.601E+02 0.176E+02   0.186E+02 -.210E+01 -.183E+02   -.224E-03 -.318E-04 0.273E-03
   -.480E+02 -.585E+02 0.204E+02   0.649E+02 0.780E+02 -.159E+02   -.170E+02 -.195E+02 -.453E+01   0.205E-03 0.264E-03 0.843E-04
   0.480E+02 -.585E+02 -.204E+02   -.649E+02 0.780E+02 0.159E+02   0.170E+02 -.195E+02 0.453E+01   -.203E-03 0.262E-03 -.861E-04
   0.480E+02 0.585E+02 -.204E+02   -.649E+02 -.780E+02 0.159E+02   0.170E+02 0.195E+02 0.453E+01   -.202E-03 -.262E-03 -.848E-04
   -.480E+02 0.585E+02 0.204E+02   0.649E+02 -.780E+02 -.159E+02   -.170E+02 0.195E+02 -.453E+01   0.204E-03 -.266E-03 0.855E-04
   -.363E+02 -.822E+01 0.520E+02   0.406E+02 0.248E+02 -.539E+02   -.437E+01 -.166E+02 0.188E+01   0.465E-04 0.236E-03 -.149E-04
   0.363E+02 -.821E+01 -.520E+02   -.406E+02 0.248E+02 0.539E+02   0.436E+01 -.166E+02 -.188E+01   -.469E-04 0.234E-03 0.161E-04
   0.363E+02 0.821E+01 -.520E+02   -.406E+02 -.248E+02 0.539E+02   0.436E+01 0.166E+02 -.188E+01   -.472E-04 -.235E-03 0.154E-04
   -.363E+02 0.822E+01 0.520E+02   0.406E+02 -.248E+02 -.539E+02   -.437E+01 0.166E+02 0.188E+01   0.449E-04 -.236E-03 -.145E-04
   -.299E+02 0.699E+02 -.547E+01   0.320E+02 -.952E+02 0.331E+01   -.205E+01 0.253E+02 0.216E+01   -.111E-04 -.356E-03 -.613E-04
   0.299E+02 0.699E+02 0.547E+01   -.320E+02 -.952E+02 -.331E+01   0.205E+01 0.253E+02 -.216E+01   0.121E-04 -.352E-03 0.603E-04
   0.299E+02 -.699E+02 0.547E+01   -.320E+02 0.952E+02 -.331E+01   0.205E+01 -.253E+02 -.216E+01   0.129E-04 0.352E-03 0.617E-04
   -.299E+02 -.699E+02 -.547E+01   0.320E+02 0.952E+02 0.331E+01   -.205E+01 -.253E+02 0.216E+01   -.115E-04 0.355E-03 -.607E-04
   -.480E+02 -.988E+01 -.280E+01   0.566E+02 0.187E+02 -.193E+02   -.863E+01 -.886E+01 0.221E+02   0.868E-04 0.149E-03 -.313E-03
   0.480E+02 -.988E+01 0.280E+01   -.566E+02 0.187E+02 0.193E+02   0.863E+01 -.886E+01 -.221E+02   -.867E-04 0.147E-03 0.312E-03
   0.480E+02 0.988E+01 0.280E+01   -.566E+02 -.187E+02 0.193E+02   0.863E+01 0.886E+01 -.221E+02   -.870E-04 -.147E-03 0.312E-03
   -.480E+02 0.988E+01 -.280E+01   0.566E+02 -.187E+02 -.193E+02   -.863E+01 0.886E+01 0.221E+02   0.859E-04 -.148E-03 -.314E-03
   0.585E+02 -.150E+02 -.651E+02   -.820E+02 0.234E+02 0.724E+02   0.235E+02 -.844E+01 -.732E+01   -.266E-03 0.798E-04 0.758E-04
   -.586E+02 -.150E+02 0.651E+02   0.820E+02 0.234E+02 -.724E+02   -.235E+02 -.844E+01 0.732E+01   0.265E-03 0.770E-04 -.741E-04
   -.586E+02 0.150E+02 0.651E+02   0.820E+02 -.234E+02 -.724E+02   -.235E+02 0.844E+01 0.732E+01   0.265E-03 -.771E-04 -.749E-04
   0.585E+02 0.150E+02 -.651E+02   -.820E+02 -.234E+02 0.724E+02   0.235E+02 0.844E+01 -.732E+01   -.265E-03 -.797E-04 0.749E-04
   0.674E-02 0.731E-05 0.229E-02   -.568E-13 0.277E-12 -.853E-13   -.694E-02 -.609E-05 -.199E-02   -.714E-05 -.215E-05 0.145E-04

 POSITION                                       TOTAL-FORCE (eV/Angst)
      4.66867      3.92340     -0.37563        -0.007913      0.019233     -0.010128
      9.09602      8.37306      0.41512         0.007858      0.019242      0.010124
      4.50846      4.97591      3.02301         0.007856     -0.019237      0.010129
      0.08111      0.52625      2.23225        -0.007914     -0.019238     -0.010123
      6.12971      8.23196     -1.83844        -0.005952      0.007810     -0.004051
      7.63495      3.78230      1.87790         0.005990      0.007742      0.004053
      3.04740      0.66735      4.48579         0.005989     -0.007747      0.004051
      1.54215      5.11701      0.76945        -0.005953     -0.007805     -0.004054
      7.70252      5.27203     -2.15135         0.010781      0.002240     -0.007370
      6.06224      0.82234      2.19085        -0.010723      0.002142      0.007322
      1.47468      3.62732      4.79874        -0.010721     -0.002152      0.007321
      3.11496      8.07694      0.45654         0.010783     -0.002230     -0.007371
      7.30746      2.36769     -0.74802         0.013124     -0.009556      0.002155
      6.45720      6.81733      0.78748        -0.012999     -0.009122     -0.002427
      1.86964      6.53163      3.39537        -0.012996      0.009239     -0.002389
      2.71990      2.08197      1.85987         0.013127      0.009440      0.002194
      5.41762      2.54240      4.66308         0.009239     -0.001816     -0.001212
      8.34704      6.99204     -4.62361        -0.009285     -0.001727      0.001207
      3.75948      6.35692     -2.01572        -0.009269      0.001793      0.001171
      0.83007      1.90726      7.27096         0.009255      0.001750     -0.001247
      7.86273      0.91055     -1.15536         0.008153     -0.027204      0.004313
      5.90194      5.36018      1.19480        -0.008166     -0.027105     -0.004149
      1.31438      7.98878      3.80268        -0.008144      0.027042     -0.004167
      3.27517      3.53910      1.45252         0.008176      0.027266      0.004294
      6.22619      2.31823      0.45421         0.008314      0.013270     -0.004004
      7.53848      6.76792     -0.41474        -0.008328      0.013237      0.004103
      2.95092      6.58104      2.19315        -0.008320     -0.013250      0.004092
      1.63864      2.13142      3.06210         0.008323     -0.013259     -0.004014
      8.36701      3.53688     -0.43123        -0.011002      0.003942     -0.001107
      5.39764      7.98653      0.47070         0.010863      0.003973      0.001198
      0.81009      5.36244      3.07859         0.010828     -0.004017      0.001185
      3.77945      0.91278      2.17666        -0.011038     -0.003897     -0.001120
      6.45308      3.08141     -2.00917        -0.021875     -0.009757     -0.005599
      7.31158      7.53105      2.04863         0.021428     -0.009864      0.005545
      2.72403      5.81792      4.65652         0.021427      0.009852      0.005546
      1.86552      1.36825      0.59872        -0.021873      0.009769     -0.005598
      5.49452      0.93495      4.54184        -0.002727     -0.010342     -0.004717
      8.27013      5.38459     -4.50235         0.002737     -0.010434      0.004738
      3.68258      7.96437     -1.89446         0.002738      0.010393      0.004738
      0.90696      3.51471      7.14973        -0.002726      0.010384     -0.004717
      5.91412      3.19648      3.28196        -0.010115     -0.010735      0.011095
      7.85054      7.64616     -3.24251         0.010157     -0.010773     -0.011093
      3.26298      5.70280     -0.63462         0.010143      0.010748     -0.011057
      1.32656      1.25317      5.88985        -0.010128      0.010759      0.011131
      3.92303      3.01545      5.10378        -0.004626     -0.014755      0.008207
      0.66652      7.46507      0.15144         0.005070     -0.014985     -0.008204
      5.25408      5.88390     -2.45645         0.005065      0.014978     -0.008201
      8.51058      1.43421      2.49589        -0.004633      0.014762      0.008208
    total drift:                               -0.000211     -0.000001      0.000311

  FREE ENERGIE OF THE ION-ELECTRON SYSTEM (eV)
  free  energy   TOTEN  =      -529.53546825 eV

  energy  without entropy=     -529.53546825  energy(sigma->0) =     -529.53546825

 reached required accuracy - stopping structural energy minimisation

 total charge

[...]

 magnetization (x)

# of ion       s       p       d       tot
    1       -0.000   0.000  -0.000  -0.000
    2       -0.000   0.000  -0.000  -0.000
    3       -0.000   0.000  -0.000  -0.000
    4       -0.000   0.000  -0.000  -0.000
    5        0.000   0.000   0.000   0.000
    6        0.000   0.000   0.000   0.000
    7        0.000   0.000   0.000   0.000
    8        0.000   0.000   0.000   0.000
    9       -0.000  -0.000  -0.000  -0.000
   10       -0.000  -0.000  -0.000  -0.000
   11       -0.000  -0.000  -0.000  -0.000
   12       -0.000  -0.000   0.000  -0.000
   13       -0.000  -0.000   0.000  -0.000
   14       -0.000  -0.000   0.000  -0.000
   15       -0.000  -0.000   0.000  -0.000
   16       -0.000  -0.000   0.000  -0.000
   17       -0.000  -0.000   0.000  -0.000
   18       -0.000  -0.000   0.000  -0.000
   19       -0.000  -0.000   0.000  -0.000
   20       -0.000  -0.000   0.000  -0.000
   21       -0.000  -0.000   0.000  -0.000
   22       -0.000  -0.000   0.000  -0.000
   23       -0.000  -0.000   0.000  -0.000
   24       -0.000  -0.000   0.000  -0.000
   25       -0.000  -0.000   0.000  -0.000
   26       -0.000  -0.000   0.000  -0.000
   27       -0.000  -0.000   0.000  -0.000
   28       -0.000  -0.000   0.000  -0.000
   29       -0.000  -0.000   0.000  -0.000
   30       -0.000  -0.000   0.000  -0.000
   31       -0.000  -0.000   0.000  -0.000
   32       -0.000  -0.000   0.000  -0.000
   33        0.000   0.000   0.000   0.000
   34        0.000   0.000   0.000   0.000
   35        0.000   0.000   0.000   0.000
   36       -0.000   0.000   0.000   0.000
   37       -0.000  -0.000   0.000  -0.000
   38       -0.000  -0.000   0.000  -0.000
   39       -0.000  -0.000   0.000  -0.000
   40       -0.000  -0.000   0.000  -0.000
   41       -0.000  -0.000   0.000  -0.000
   42       -0.000  -0.000   0.000  -0.000
   43       -0.000  -0.000   0.000  -0.000
   44       -0.000  -0.000   0.000  -0.000
   45        0.000   0.000   0.000   0.000
   46        0.000   0.000   0.000   0.000
   47        0.000   0.000   0.000   0.000
   48        0.000  -0.000   0.000   0.000
tot          0.000  -0.000   0.000  -0.000