 vasp.6.1.2 22Jul20 (build Apr 14 2021 21:39:43) complex

 executed on             LinuxIFC date 2022.06.29  09:11:11

 INCAR:
 POTCAR:    PAW_PBE Ca_sv 06Sep2000
 POTCAR:    PAW_PBE Co_pv 23Apr2009
 POTCAR:    PAW_PBE P 06Sep2000
 POTCAR:    PAW_PBE O 08Apr2002
 POTCAR:    PAW_PBE Ca_sv 06Sep2000
   VRHFIN =Ca: 3s3p4s

   TITEL  = PAW_PBE Ca_sv 06Sep2000
   POMASS =   40.078; ZVAL   =   10.000    mass and valenz
   ENMAX  =  266.622; ENMIN  =  199.967 eV

   TITEL  = PAW_PBE Co_pv 23Apr2009
   POMASS =   58.933; ZVAL   =   15.000    mass and valenz
   ENMAX  =  271.042; ENMIN  =  203.281 eV

   TITEL  = PAW_PBE P 06Sep2000
   POMASS =   30.974; ZVAL   =    5.000    mass and valenz
   ENMAX  =  255.040; ENMIN  =  191.280 eV

   TITEL  = PAW_PBE O 08Apr2002
   POMASS =   16.000; ZVAL   =    6.000    mass and valenz
   ENMAX  =  400.000; ENMIN  =  300.000 eV

 Optimization of the real space projectors (new method)

 maximal supplied QI-value         = 16.25
 optimisation between [QCUT,QGAM] = [ 11.54, 23.24] = [ 37.28,151.24] Ry
 Optimized for a Real-space Cutoff    1.58 Angstroem

   l    n(q)    QCUT    max X(q) W(low)/X(q) W(high)/X(q)  e(spline)
   0     11    11.539    11.817    0.25E-04    0.22E-05    0.26E-07
   0     11    11.539     8.461    0.39E-04    0.49E-05    0.55E-07
   1     11    11.539     3.957    0.21E-05    0.44E-05    0.32E-07
   1     11    11.539     4.314    0.56E-04    0.44E-04    0.19E-06
   2     10    11.539    14.565    0.25E-03    0.21E-04    0.75E-06
   2     10    11.539    14.552    0.23E-03    0.22E-04    0.72E-06
 Optimization of the real space projectors (new method)

[...]

   l    n(q)    QCUT    max X(q) W(low)/X(q) W(high)/X(q)  e(spline)
   0      8    11.508   160.924    0.96E-04    0.17E-03    0.52E-07
   0      8    11.508   130.086    0.95E-04    0.17E-03    0.51E-07
   1      8    11.508    74.434    0.16E-03    0.74E-04    0.91E-07
   1      8    11.508    49.120    0.16E-03    0.71E-04    0.89E-07
 Optimization of the real space projectors (new method)

 maximal supplied QI-value         = 24.76
 optimisation between [QCUT,QGAM] = [ 11.64, 23.27] = [ 37.91,151.63] Ry
 Optimized for a Real-space Cutoff    1.14 Angstroem

   l    n(q)    QCUT    max X(q) W(low)/X(q) W(high)/X(q)  e(spline)
   0      8    11.635    20.381    0.10E-03    0.33E-03    0.24E-06
   0      8    11.635    15.268    0.11E-03    0.35E-03    0.26E-06
   1      7    11.635     5.964    0.24E-03    0.31E-03    0.30E-06
   1      7    11.635     5.382    0.22E-03    0.25E-03    0.26E-06
  PAW_PBE Ca_sv 06Sep2000               :
  PAW_PBE Co_pv 23Apr2009               :
  PAW_PBE P 06Sep2000                   :
  PAW_PBE O 08Apr2002                   :

 POSCAR: Ca5 Co4 P6 O24
  positions in direct lattice
  velocities in cartesian coordinates

 METAGGA = SCAN     LMAXTAU =  6    LMIXTAU =  F

 ion  position               nearest neighbor table
   1  0.534  0.476  0.497-  19 2.25  17 2.31  15 2.33  22 2.33  26 2.37   5 3.00
   2  0.962  0.997  0.021-  23 2.25  25 2.31  21 2.33  18 2.34  20 2.37   7 3.00
   3  0.389  0.743  0.086-  33 2.36  22 2.38  31 2.38  20 2.45  16 2.45  24 2.52  14 2.87  12 2.90

   4  0.108  0.409  0.753-  27 2.36  18 2.38  35 2.38  26 2.44  24 2.45  16 2.52  14 2.88  10 2.90

   5  0.650  0.646  0.633-  30 1.98  32 2.00  15 2.00  28 2.02  19 2.02  17 2.17   1 3.00
   6  0.156  0.144  0.155-  29 1.85  27 2.00  31 2.02  16 2.10  20 2.14  18 2.30
   7  0.846  0.864  0.849-  34 1.98  21 2.00  38 2.00  36 2.01  23 2.03  25 2.17   2 3.00
   8  0.340  0.341  0.351-  37 1.85  33 2.00  35 2.02  24 2.10  26 2.15  22 2.30
   9  0.248  0.548  0.948-  25 1.53  17 1.53  33 1.54  27 1.54
  10  0.040  0.751  0.449-  28 1.51  34 1.52  20 1.54  24 1.59   4 2.90
  11  0.962  0.244  0.557-  29 1.52  21 1.53  19 1.53  35 1.54
  12  0.456  0.048  0.744-  36 1.51  30 1.52  26 1.54  16 1.59   3 2.90
  13  0.534  0.939  0.252-  37 1.52  15 1.53  23 1.53  31 1.54
  14  0.748  0.459  0.037-  32 1.52  38 1.52  18 1.54  22 1.54   3 2.87   4 2.88
  15  0.568  0.758  0.413-  13 1.53   5 2.00   1 2.33
  16  0.264  0.071  0.911-  12 1.59   6 2.10   3 2.45   4 2.52
  17  0.411  0.560  0.764-   9 1.53   5 2.17   1 2.31
  18  0.914  0.275  0.049-  14 1.54   6 2.30   2 2.34   4 2.38
  19  0.780  0.409  0.559-  11 1.53   5 2.02   1 2.25
  20  0.075  0.907  0.259-  10 1.54   6 2.14   2 2.37   3 2.45
  21  0.928  0.084  0.738-  11 1.53   7 2.00   2 2.33
  22  0.582  0.446  0.221-  14 1.54   8 2.30   1 2.33   3 2.38
  23  0.716  0.937  0.087-  13 1.53   7 2.03   2 2.25
  24  0.232  0.585  0.425-  10 1.59   8 2.10   4 2.45   3 2.52
  25  0.084  0.732  0.936-   9 1.53   7 2.17   2 2.31
  26  0.421  0.237  0.589-  12 1.54   8 2.15   1 2.37   4 2.44
  27  0.198  0.385  0.981-   9 1.54   6 2.00   4 2.36
  28  0.888  0.699  0.477-  10 1.51   5 2.02
  29  0.027  0.189  0.385-  11 1.52   6 1.85
  30  0.487  0.874  0.713-  12 1.52   5 1.98
  31  0.392  0.944  0.198-  13 1.54   6 2.02   3 2.38
  32  0.696  0.497  0.876-  14 1.52   5 2.00
  33  0.298  0.516  0.110-   9 1.54   8 2.00   3 2.36
  34  0.010  0.783  0.621-  10 1.52   7 1.98
  35  0.104  0.298  0.552-  11 1.54   8 2.02   4 2.38
  36  0.608  0.020  0.797-  12 1.51   7 2.01
  37  0.468  0.111  0.307-  13 1.52   8 1.85
  38  0.799  0.621  0.998-  14 1.52   7 2.00

IMPORTANT INFORMATION: All symmetrisations will be switched off!
NOSYMM: (Re-)initialisation of all symmetry stuff for point group C_1.

                                     Primitive cell

  volume of cell :     476.9636

  direct lattice vectors                    reciprocal lattice vectors
     2.574251781  7.318283147  4.407834085    -0.001225518  0.137795624 -0.001196188
    -0.025970933  0.074894620  8.654137507    -0.063044322 -0.047554967  0.115774020
     7.581941194  0.103642278  4.171290294     0.132092487 -0.046947829  0.000802703

  length of vectors
     8.922614066  8.654500545  8.654261188     0.137806265  0.140141661  0.140189758

  position of ions in fractional coordinates (direct lattice)
     0.533631301  0.475891147  0.497441620
     0.962448443  0.997363120  0.020965752
     0.389108444  0.742819480  0.086203683
     0.108248726  0.409422847  0.752656280
     0.649812750  0.645675697  0.633041838
     0.155687015  0.143914245  0.154764529
     0.846264363  0.863953224  0.849201288
     0.340452506  0.341039133  0.351231818
     0.247678850  0.547997629  0.948103755
     0.040119704  0.751404076  0.448509445
     0.961674413  0.244309937  0.556557209
     0.456229101  0.047657270  0.744431829
     0.534248884  0.939245692  0.251897031
     0.748003235  0.458582643  0.037109466
     0.567938811  0.758430475  0.412811904
     0.263854054  0.071342575  0.910904106
     0.411418065  0.560335920  0.763935457
     0.913965239  0.275379437  0.049328469
     0.779861003  0.408735834  0.559440667
     0.074690239  0.907001276  0.259432649
     0.927997925  0.083576689  0.737844520
     0.582303692  0.445792976  0.220721816
     0.715872066  0.936590641  0.087184458
     0.232427497  0.585082551  0.424533888
     0.083611927  0.731682223  0.935882432
     0.421410368  0.236565970  0.588867775
     0.197807546  0.385457267  0.980538225
     0.888348370  0.698564722  0.477414707
     0.027196098  0.188679139  0.384848054
     0.487218686  0.874255043  0.713136700
     0.391788522  0.943666939  0.198317125
     0.696395114  0.497165387  0.875830884
     0.297645504  0.516388291  0.110195404
     0.009548283  0.783091541  0.621498817
     0.104002974  0.298245523  0.551953836
     0.607697476  0.019625276  0.797112066
     0.468209134  0.111248152  0.307134542
     0.798512064  0.620809641  0.998232337

  ion indices of the primitive-cell ions
   primitive index   ion index
                 1           1
                 2           2
                 3           3
                 4           4
                 5           5
                 6           6
                 7           7
                 8           8
                 9           9
                10          10
                11          11
                12          12
                13          13
                14          14
                15          15
                16          16
                17          17
                18          18
                19          19
                20          20
                21          21
                22          22
                23          23
                24          24
                25          25
                26          26
                27          27
                28          28
                29          29
                30          30
                31          31
                32          32
                33          33
                34          34
                35          35
                36          36
                37          37
                38          38

 KPOINTS: Fully automatic kpoint scheme

Automatic generation of k-mesh.
 generate k-points for:    4    4    4
Space group operators:
 irot       det(A)        alpha          n_x          n_y          n_z        tau_x        tau_y        tau_z
    1     1.000000     0.000001     1.000000     0.000000     0.000000     0.000000     0.000000     0.000000

 Subroutine IBZKPT returns following result:

 Found     36 irreducible k-points:

 Following reciprocal coordinates:
            Coordinates               Weight
  0.000000  0.000000  0.000000      1.000000
  0.250000  0.000000 -0.000000      2.000000
  0.500000  0.000000  0.000000      1.000000
  0.000000  0.250000  0.000000      2.000000
  0.250000  0.250000 -0.000000      2.000000
  0.500000  0.250000  0.000000      2.000000
 -0.250000  0.250000 -0.000000      2.000000
  0.000000  0.500000  0.000000      1.000000
  0.250000  0.500000 -0.000000      2.000000
  0.500000  0.500000  0.000000      1.000000
  0.000000 -0.000000  0.250000      2.000000
  0.250000 -0.000000  0.250000      2.000000
  0.500000 -0.000000  0.250000      2.000000
 -0.250000 -0.000000  0.250000      2.000000
  0.000000  0.250000  0.250000      2.000000
  0.250000  0.250000  0.250000      2.000000
  0.500000  0.250000  0.250000      2.000000
 -0.250000  0.250000  0.250000      2.000000
  0.000000  0.500000  0.250000      2.000000
  0.250000  0.500000  0.250000      2.000000
  0.500000  0.500000  0.250000      2.000000
 -0.250000  0.500000  0.250000      2.000000
  0.000000 -0.250000  0.250000      2.000000
  0.250000 -0.250000  0.250000      2.000000
  0.500000 -0.250000  0.250000      2.000000
 -0.250000 -0.250000  0.250000      2.000000
  0.000000 -0.000000  0.500000      1.000000
  0.250000 -0.000000  0.500000      2.000000
  0.500000 -0.000000  0.500000      1.000000
 -0.000000  0.250000  0.500000      2.000000
  0.250000  0.250000  0.500000      2.000000
  0.500000  0.250000  0.500000      2.000000
 -0.250000  0.250000  0.500000      2.000000
  0.000000  0.500000  0.500000      1.000000
  0.250000  0.500000  0.500000      2.000000
  0.500000  0.500000  0.500000      1.000000

 Following cartesian coordinates:
            Coordinates               Weight
  0.000000  0.000000  0.000000      1.000000
[...]

[...]

 d Force = 0.7392019E-05[ 0.319E-05, 0.116E-04]  d Energy = 0.1049011E-03-0.975E-04
 d Force = 0.2417454E-01[ 0.242E-01, 0.242E-01]  d Ewald  = 0.2997877E-01-0.580E-02

 real space projection operators:
  max/ min on nodes  :       1165.44        851.22

[...]

 eigenvalue-minimisations  :     0
 total energy-change (2. order) : 0.8209669E-02  (-0.2330228E-02)
 number of electron     274.0000011 magnetization      14.0000003
 augmentation part       63.5411693 magnetization      10.3017253

[...]

--------------------------------------- Iteration      6(  12)  ---------------------------------------

 eigenvalue-minimisations  :     0
 total energy-change (2. order) :-0.6350998E-05  (-0.4270671E-05)
 number of electron     274.0000011 magnetization      14.0000003
 augmentation part       63.5432886 magnetization      10.3031769

 Free energy of the ion-electron system (eV)
  alpha Z        PSCENC =       922.02119530
  Ewald energy   TEWEN  =    -16102.21143603
  -Hartree energ DENC   =     -9767.82586810
  -exchange      EXHF   =         0.00000000
  -V(xc)+E(xc)   XCENC  =      1507.84307291
  PAW double counting   =     42951.31183903   -43885.68596759
  entropy T*S    EENTRO =        -0.00857824
  eigenvalues    EBANDS =     -3287.13874914
  atomic energy  EATOM  =     27249.70915408
  free energy    TOTEN  =      -411.98533526 eV

  energy without entropy =     -411.97675702  energy(sigma->0) =     -411.98104614

  average scaling for gradient   0.7532

 average (electrostatic) potential at core
  the test charge radii are     1.1137  0.9804  0.9587  0.7215
  (the norm of the test charge is              1.0000)
       1 -49.1174       2 -49.1186       3 -49.5032       4 -49.5052       5 -76.5208
       6 -76.4361       7 -76.5293       8 -76.4256       9 -89.7897      10 -90.1215
      11 -89.9066      12 -90.1288      13 -89.9047      14 -90.0774      15 -75.8249
      16 -76.2925      17 -75.4638      18 -76.2310      19 -75.8337      20 -76.3436
      21 -75.8360      22 -76.2264      23 -75.8278      24 -76.2868      25 -75.4623
      26 -76.3429      27 -75.9163      28 -75.6574      29 -76.0784      30 -75.8776
      31 -75.8921      32 -75.8288      33 -75.9134      34 -75.8754      35 -75.8869
      36 -75.6675      37 -76.0850      38 -75.8284

 E-fermi :   2.7299     XC(G=0): -10.5184     alpha+bet :-10.5499

[...]

 spin component 2

[...]

 k-point    36 :       0.5000    0.5000    0.5000
  band No.  band energies     occupation
      1     -56.3228      1.00000
      2     -56.3089      1.00000
      3     -56.2984      1.00000
      4     -56.2847      1.00000
      5     -56.1128      1.00000
      6     -56.1067      1.00000
      7     -55.9328      1.00000
      8     -55.9213      1.00000
      9     -55.8657      1.00000
     10     -55.8655      1.00000
     11     -55.8526      1.00000
     12     -55.8434      1.00000
     13     -38.4679      1.00000
     14     -38.4660      1.00000
     15     -38.0792      1.00000
     16     -38.0784      1.00000
     17     -20.3837      1.00000
     18     -20.2544      1.00000
     19     -20.2300      1.00000
     20     -20.0019      1.00000
     21     -19.8431      1.00000
     22     -19.7084      1.00000
     23     -19.2019      1.00000
     24     -18.9011      1.00000
     25     -18.7744      1.00000
     26     -18.6994      1.00000
     27     -18.5582      1.00000
     28     -18.5354      1.00000
     29     -18.4909      1.00000
     30     -18.4313      1.00000
     31     -18.4096      1.00000
     32     -18.4039      1.00000
     33     -18.3180      1.00000
     34     -18.3126      1.00000
     35     -17.6434      1.00000
     36     -17.5638      1.00000
     37     -17.5139      1.00000
     38     -17.4347      1.00000
     39     -17.3712      1.00000
     40     -17.3063      1.00000
     41     -17.2789      1.00000
     42     -17.2652      1.00000
     43     -17.1788      1.00000
     44     -17.1763      1.00000
     45     -17.1381      1.00000
     46     -17.0654      1.00000
     47     -16.9857      1.00000
     48     -16.9734      1.00000
     49     -16.9140      1.00000
     50     -16.8691      1.00000
     51     -16.7719      1.00000
     52     -16.6603      1.00000
     53      -7.0701      1.00000
     54      -6.8554      1.00000
     55      -6.2026      1.00000
     56      -6.1474      1.00000
     57      -6.0898      1.00000
     58      -6.0558      1.00000
     59      -5.1388      1.00000
     60      -5.0188      1.00000
[...]
    170      11.2694      0.00000
    171      11.3927      0.00000
    172      11.4712      0.00000
    173      11.5767      0.00000
    174      11.6537      0.00000
    175      11.7875      0.00000
    176      12.0999      0.00000
    177      12.1390      0.00000
    178      12.1903      0.00000
    179      12.4147      0.00000
    180      12.5166      0.00000
    181      12.5516      0.00000
    182      12.7194      0.00000
    183      12.8842      0.00000
    184      12.9864      0.00000

[...]

 soft charge-density along one line, spin component           2
         0         1         2         3         4         5         6         7         8         9
 total charge-density along one line

------------------------ aborting loop because EDIFF is reached ----------------------------------------

[...]

  FORCE on cell =-STRESS in cart. coord.  units (eV):
  Direction    XX          YY          ZZ          XY          YZ          ZX
  Alpha Z   922.02120   922.02120   922.02120
  Ewald   -5208.05234 -6121.71493 -4772.51659   -68.65742  -120.78610   392.88113
  Hartree  3352.73121  2755.34050  3659.72967   -48.29118   -82.36459   277.68177
  E(xc)   -1502.19384 -1502.08488 -1501.97501     0.01234     0.03589     0.20786
  Local   -2387.03838  -889.02441 -3136.31833   111.05005   192.78447  -677.67201
  n-local  -549.61061  -552.77417  -550.55052    -0.95297    -1.78971    -1.01109
  augment   861.79273   864.79585   868.88748     4.48646     7.67147     6.92407
  Kinetic  4510.35004  4523.50337  4510.69409     2.33397     4.45269     1.01034
  Fock        0.00000     0.00000     0.00000     0.00000     0.00000     0.00000
  Total      -0.00000     0.06253    -0.02802    -0.01875     0.00410     0.02207
  in kB      -0.00001     0.21001    -0.09413    -0.06298     0.01378     0.07412

 VOLUME and BASIS-vectors are now :
  energy-cutoff  :      520.00
  volume of cell :      477.02
      direct lattice vectors                 reciprocal lattice vectors
     2.574343391  7.319485097  4.409179386    -0.001235464  0.137787692 -0.001214388
    -0.026874491  0.076034519  8.654421825    -0.063029101 -0.047570630  0.115770083
     7.581778826  0.104740816  4.170812296     0.132091249 -0.046953529  0.000822698

  length of vectors
     8.924290943  8.654797549  8.653901780     0.137798582  0.140136878  0.140190616

 FORCES acting on ions:
    Electron-Ion                     Ewald-Force                    Non-Local-Force
   -.487E+01 -.738E+02 0.652E+02   0.590E+01 0.750E+02 -.636E+02   -.102E+01 -.115E+01 -.161E+01
   -.607E+02 0.727E+02 -.276E+02   0.597E+02 -.738E+02 0.259E+02   0.933E+00 0.115E+01 0.167E+01
   0.409E+02 -.337E+02 0.165E+02   -.390E+02 0.322E+02 -.168E+02   -.189E+01 0.145E+01 0.237E+00
   0.408E+01 0.355E+02 -.443E+02   -.296E+01 -.340E+02 0.427E+02   -.112E+01 -.146E+01 0.159E+01
   0.738E+02 0.538E+01 -.469E+02   -.740E+02 -.409E+01 0.486E+02   0.237E+00 -.129E+01 -.171E+01
   -.110E+03 0.113E+03 -.126E+03   0.115E+03 -.111E+03 0.131E+03   -.529E+01 -.182E+01 -.476E+01
   0.755E+02 -.459E+01 -.397E+02   -.772E+02 0.337E+01 0.391E+02   0.163E+01 0.119E+01 0.569E+00
   0.574E+02 -.112E+03 0.157E+03   -.589E+02 0.110E+03 -.164E+03   0.145E+01 0.190E+01 0.696E+01
   0.158E+01 0.283E+00 -.953E+00   -.292E+01 -.298E+00 0.177E+01   0.140E+01 0.232E-01 -.852E+00
   0.407E+02 0.550E+02 -.511E+02   -.386E+02 -.588E+02 0.501E+02   -.219E+01 0.393E+01 0.105E+01
   0.117E+02 0.126E+02 0.376E+02   -.115E+02 -.129E+02 -.374E+02   -.233E+00 0.345E+00 -.256E+00
   0.658E+02 -.543E+02 -.102E+02   -.639E+02 0.581E+02 0.893E+01   -.200E+01 -.395E+01 0.133E+01
   -.278E+02 -.131E+02 -.284E+02   0.277E+02 0.135E+02 0.281E+02   0.101E+00 -.410E+00 0.310E+00
   -.758E+02 -.169E+01 0.443E+02   0.730E+02 0.162E+01 -.426E+02   0.298E+01 0.687E-01 -.174E+01
   0.945E+02 0.306E+02 0.319E+02   -.699E+02 -.268E+02 -.488E+02   -.246E+02 -.382E+01 0.169E+02
   0.104E+03 0.235E+02 0.100E+03   -.933E+02 -.494E+02 -.102E+03   -.103E+02 0.259E+02 0.174E+01
   0.304E+02 0.478E+02 0.708E+02   -.512E+02 -.236E+02 -.700E+02   0.209E+02 -.241E+02 -.773E+00
   -.673E+02 0.105E+03 0.920E+02   0.820E+02 -.810E+02 -.110E+03   -.147E+02 -.242E+02 0.179E+02
   0.628E+02 -.154E+02 0.151E+03   -.731E+02 -.106E+02 -.140E+03   0.103E+02 0.260E+02 -.105E+02
   0.554E+01 0.154E+03 0.556E+02   -.331E+02 -.153E+03 -.408E+02   0.276E+02 -.164E+01 -.148E+02
   0.163E+02 -.315E+02 -.100E+03   0.105E+02 0.279E+02 0.872E+02   -.268E+02 0.356E+01 0.131E+02
   -.113E+03 -.107E+03 0.150E+02   0.136E+03 0.829E+02 -.194E+02   -.230E+02 0.240E+02 0.438E+01
   -.102E+03 0.147E+02 -.127E+03   0.875E+02 0.112E+02 0.131E+03   0.144E+02 -.259E+02 -.392E+01
   -.371E+02 -.233E+02 -.138E+03   0.433E+02 0.493E+02 0.129E+03   -.627E+01 -.260E+02 0.815E+01
   -.482E+02 -.471E+02 -.602E+02   0.375E+02 0.227E+02 0.779E+02   0.106E+02 0.244E+02 -.177E+02
   -.441E+02 -.154E+03 -.310E+02   0.177E+02 0.152E+03 0.478E+02   0.264E+02 0.182E+01 -.169E+02
   0.360E+02 -.368E+02 -.923E+02   -.357E+02 0.297E+02 0.647E+02   -.261E+00 0.709E+01 0.276E+02
   0.161E+03 -.924E+01 -.194E+02   -.171E+03 -.136E+02 -.620E+01   0.948E+01 0.229E+02 0.257E+02
   -.823E+02 0.135E+03 -.117E+02   0.628E+02 -.130E+03 -.759E+01   0.195E+02 -.500E+01 0.193E+02
   0.920E+02 0.965E+02 -.193E+02   -.983E+02 -.981E+02 -.141E+02   0.635E+01 0.160E+01 0.334E+02
   -.100E+03 -.759E+02 0.307E+02   0.863E+02 0.563E+02 -.502E+02   0.139E+02 0.196E+02 0.195E+02
   -.778E+02 -.157E+01 0.139E+03   0.511E+02 -.779E+01 -.158E+03   0.267E+02 0.937E+01 0.184E+02
   0.975E+02 0.388E+02 0.121E+02   -.733E+02 -.316E+02 0.125E+01   -.242E+02 -.716E+01 -.134E+02
   0.609E+02 -.973E+02 -.704E+02   -.348E+02 0.991E+02 0.922E+02   -.261E+02 -.189E+01 -.218E+02
   -.761E+02 0.756E+02 0.721E+02   0.863E+02 -.560E+02 -.503E+02   -.102E+02 -.195E+02 -.218E+02
   0.956E+02 0.116E+02 -.132E+03   -.779E+02 0.111E+02 0.153E+03   -.177E+02 -.227E+02 -.210E+02
   -.299E+02 -.136E+03 0.784E+02   0.372E+02 0.130E+03 -.521E+02   -.732E+01 0.513E+01 -.263E+02
   -.157E+03 -.550E+00 -.694E+00   0.160E+03 0.961E+01 0.331E+02   -.289E+01 -.908E+01 -.324E+02
   0.132E+02 -.210E+00 -.763E+01   -.199E-12 0.515E-13 -.348E-12   -.132E+02 0.229E+00 0.752E+01

 POSITION                                       TOTAL-FORCE (eV/Angst)
      5.13254      3.99408      8.54568         0.007570      0.000971      0.004275
      2.60951      7.12252     12.96319         0.002016      0.002938      0.006500
      1.63591      2.91314      8.50392         0.004786     -0.009581     -0.003878
      5.97414      0.90246      7.15968         0.002395      0.001345     -0.000211
      6.45492      4.87198     11.09335         0.002031     -0.002495     -0.002378
      1.57093      1.16484      2.57710         0.000530      0.012298     -0.011116
      8.59302      6.34708     14.75006        -0.014553     -0.018295     -0.008826
      3.53218      2.55531      5.91792        -0.018088     -0.015860     -0.002845
      7.81104      1.95369      9.78908         0.007262      0.008796      0.002187
      3.48290      0.39740      8.55013        -0.000491     -0.005184     -0.008958
      6.68900      7.11597      8.67563        -0.004984     -0.000289      0.007875
      6.81717      3.42119      5.52944         0.002031     -0.002653     -0.005200
      3.25984      4.00797     11.53466         0.005918     -0.005203      0.005021
      2.19489      5.51383      7.42163        -0.002279      0.001348     -0.002519
      4.57103      4.25868     10.78993         0.017254      0.007710     -0.001298
      7.58397      2.03299      5.58023         0.008588     -0.001298      0.013399
      6.83639      3.13432      9.85003        -0.002235      0.013090      0.003962
      2.71969      6.71627      6.61905         0.011537      0.008860      0.005374
      6.23816      5.79813      9.30830        -0.005941     -0.016440      0.009290
      2.13502      0.64316      9.26086        -0.012568      0.002438      0.007525
      7.98019      6.87599      7.89286         0.012182     -0.004427     -0.009860
      3.16042      4.31905      7.34605         0.005129     -0.001516     -0.002561
      2.47983      5.32018     11.62615         0.003603      0.006035      0.006864
      3.80094      1.78973      7.85922        -0.005920      0.008013     -0.011786
      7.29107      0.76606     10.60472         0.000107      0.004034      0.007911
      5.54247      3.16397      6.36149         0.002039      0.001884     -0.004753
      7.93317      1.58006      8.29774         0.000562      0.003973     -0.004306
      5.88687      6.60541     11.95371        -0.012715     -0.009971     -0.007112
      2.98268      0.25483      3.35843        -0.001655      0.008882      0.002198
      6.63875      3.70754     12.68919         0.004150      0.015732     -0.006585
      2.48695      2.96075     10.72082        -0.005318     -0.011223     -0.002280
      8.42021      5.22743     11.02581        -0.010691      0.007175     -0.008047
      1.58760      2.22954      6.24087         0.010080      0.003276      0.003329
      4.71514      0.19465      9.41061        -0.002843     -0.006204     -0.003171
      4.44456      0.84086      5.34126         0.005963      0.013436      0.016482
      7.60676      4.53296      6.17463        -0.017870     -0.008987      0.014491
      3.53092      3.46717      4.30845         0.002040     -0.004998     -0.006550
      9.60708      5.99601     13.05662         0.000381     -0.007610     -0.002443
    total drift:                                0.003542      0.019391     -0.106203

  FREE ENERGIE OF THE ION-ELECTRON SYSTEM (eV)
  free  energy   TOTEN  =      -411.98533526 eV

  energy  without entropy=     -411.97675702  energy(sigma->0) =     -411.98104614

 d Force = 0.1713278E-03[ 0.599E-04, 0.283E-03]  d Energy = 0.1635986E-03 0.773E-05
 d Force = 0.1307664E+00[ 0.130E+00, 0.132E+00]  d Ewald  =-0.7419992E+00 0.873E+00

 Conjugate gradient step on ions:
 trial-energy change:   -0.000164  1 .order   -0.000196   -0.000328   -0.000064
  (g-gl).g = 0.510E-03      g.g   = 0.600E-03  gl.gl    = 0.629E-03
 g(Force)  = 0.533E-03   g(Stress)= 0.675E-04 ortho     = 0.899E-04
 gamma     =   0.81110
 trial     =   0.48712
 opt step  =   0.60632  (harmonic =   0.60632) maximal distance =0.00137848
 next E    =  -411.985376   (d E  =  -0.00020)

 reached required accuracy - stopping structural energy minimisation

 total charge

[...]

 magnetization (x)

# of ion       s       p       d       tot
    1       -0.000   0.000  -0.001  -0.000
    2       -0.000   0.000  -0.001  -0.000
    3       -0.000  -0.000  -0.001  -0.002
    4       -0.000  -0.000  -0.001  -0.002
    5        0.002   0.010   2.973   2.985
    6        0.004   0.015   2.891   2.910
    7        0.002   0.010   2.973   2.985
    8        0.004   0.015   2.889   2.909
    9        0.002   0.007   0.000   0.009
   10        0.004   0.010   0.000   0.014
   11        0.003   0.007   0.000   0.011
   12        0.004   0.010   0.000   0.014
   13        0.003   0.007   0.000   0.011
   14        0.004   0.009   0.000   0.013
   15        0.008   0.092   0.000   0.100
   16        0.006   0.052   0.000   0.058
   17        0.006   0.058   0.000   0.065
   18        0.004   0.030   0.000   0.034
   19        0.008   0.088   0.000   0.096
   20        0.005   0.041   0.000   0.046
   21        0.009   0.093   0.000   0.101
   22        0.004   0.030   0.000   0.034
   23        0.007   0.087   0.000   0.095
   24        0.006   0.051   0.000   0.057
   25        0.006   0.058   0.000   0.064
   26        0.005   0.041   0.000   0.046
   27        0.008   0.061   0.000   0.069
   28        0.009   0.061   0.000   0.070
   29        0.011   0.150   0.000   0.161
   30        0.009   0.059   0.000   0.067
   31        0.007   0.069   0.000   0.076
   32        0.009   0.059   0.000   0.067
   33        0.008   0.061   0.000   0.068
   34        0.009   0.059   0.000   0.067
   35        0.007   0.068   0.000   0.075
   36        0.009   0.062   0.000   0.070
   37        0.011   0.150   0.000   0.162
   38        0.009   0.058   0.000   0.066
tot          0.213   1.737  11.723  13.673