 vasp.6.1.2 22Jul20 (build Mar 19 2021 09:51:12) complex

 executed on             LinuxIFC date 2021.07.24  20:08:47

 INCAR:
 POTCAR:    PAW_PBE Mn_pv 02Aug2007
 POTCAR:    PAW_PBE Si 05Jan2001
 POTCAR:    PAW_PBE O 08Apr2002
 POTCAR:    PAW_PBE Mn_pv 02Aug2007
   VRHFIN =Mn: 3p4s3d

   TITEL  = PAW_PBE Mn_pv 02Aug2007
   POMASS =   54.938; ZVAL   =   13.000    mass and valenz
   ENMAX  =  269.864; ENMIN  =  202.398 eV

 POTCAR:    PAW_PBE Si 05Jan2001
   VRHFIN =Si: s2p2

   TITEL  = PAW_PBE Si 05Jan2001
   POMASS =   28.085; ZVAL   =    4.000    mass and valenz
   ENMAX  =  245.345; ENMIN  =  184.009 eV

 POTCAR:    PAW_PBE O 08Apr2002
   VRHFIN =O: s2p4

   TITEL  = PAW_PBE O 08Apr2002
   POMASS =   16.000; ZVAL   =    6.000    mass and valenz
   ENMAX  =  400.000; ENMIN  =  300.000 eV

 Optimization of the real space projectors (new method)

 maximal supplied QI-value         = 16.25
 optimisation between [QCUT,QGAM] = [ 11.54, 23.24] = [ 37.28,151.24] Ry
 Optimized for a Real-space Cutoff    1.45 Angstroem

   l    n(q)    QCUT    max X(q) W(low)/X(q) W(high)/X(q)  e(spline)
   1     10    11.539     3.658    0.56E-04    0.12E-03    0.13E-06
   1     10    11.539     5.612    0.11E-03    0.23E-03    0.24E-06
   2      9    11.539    55.373    0.45E-04    0.92E-04    0.22E-06
   2      9    11.539    50.863    0.47E-04    0.95E-04    0.22E-06
   0     10    11.539    79.536    0.46E-04    0.27E-04    0.11E-06
   0     10    11.539    38.668    0.38E-04    0.25E-04    0.10E-06
 Optimization of the real space projectors (new method)

[...]

   l    n(q)    QCUT    max X(q) W(low)/X(q) W(high)/X(q)  e(spline)
   0      8    11.508   159.560    0.71E-04    0.15E-03    0.51E-07
   0      8    11.508   115.863    0.70E-04    0.15E-03    0.51E-07
   1      8    11.508    88.339    0.16E-03    0.38E-04    0.82E-07
   1      8    11.508    48.592    0.15E-03    0.36E-04    0.79E-07
 Optimization of the real space projectors (new method)

 maximal supplied QI-value         = 24.76
 optimisation between [QCUT,QGAM] = [ 11.64, 23.27] = [ 37.91,151.63] Ry
 Optimized for a Real-space Cutoff    1.14 Angstroem

   l    n(q)    QCUT    max X(q) W(low)/X(q) W(high)/X(q)  e(spline)
   0      8    11.635    20.381    0.10E-03    0.33E-03    0.24E-06
   0      8    11.635    15.268    0.11E-03    0.35E-03    0.26E-06
   1      7    11.635     5.964    0.24E-03    0.31E-03    0.30E-06
   1      7    11.635     5.382    0.22E-03    0.25E-03    0.26E-06
  PAW_PBE Mn_pv 02Aug2007               :
  PAW_PBE Si 05Jan2001                  :
  PAW_PBE O 08Apr2002                   :

 POSCAR: Mn2 Si4 O10
  positions in direct lattice
  velocities in cartesian coordinates

 METAGGA = SCAN     LMAXTAU =  6    LMIXTAU =  F

 ion  position               nearest neighbor table
   1  0.320  0.680  0.250-   7 2.09   9 2.27  10 2.27  14 2.33  13 2.33  15 2.36  16 2.36   6 2.90
                             4 3.09   3 3.09
   2  0.680  0.320  0.750-   8 2.09  12 2.27  11 2.27  15 2.33  16 2.33  14 2.36  13 2.36   5 2.90
                             3 3.09   4 3.09
   3  1.000  0.000  0.500-   8 1.73   7 1.73  11 1.80   9 1.80  16 1.82  14 1.82   2 3.09   1 3.09
                             6 3.11   5 3.11
   4  0.000  1.000  1.000-   7 1.73   8 1.73  10 1.80  12 1.80  13 1.82  15 1.82   1 3.09   2 3.09
                             5 3.11   6 3.11
   5  0.323  0.677  0.750-  12 1.62  11 1.62  13 1.63  14 1.63   2 2.90   4 3.11   3 3.11
   6  0.677  0.323  0.250-   9 1.62  10 1.62  16 1.63  15 1.63   1 2.90   3 3.11   4 3.11
   7  0.065  0.935  0.250-   4 1.73   3 1.73   1 2.09
   8  0.935  0.065  0.750-   3 1.73   4 1.73   2 2.09
   9  0.750  0.646  0.409-   6 1.62   3 1.80   1 2.27
  10  0.354  0.250  0.091-   6 1.62   4 1.80   1 2.27
  11  0.250  0.354  0.591-   5 1.62   3 1.80   2 2.27
  12  0.646  0.750  0.909-   5 1.62   4 1.80   2 2.27
  13  0.116  0.701  0.898-   5 1.63   4 1.82   1 2.33   2 2.36
  14  0.299  0.884  0.602-   5 1.63   3 1.82   1 2.33   2 2.36
  15  0.884  0.299  0.102-   6 1.63   4 1.82   2 2.33   1 2.36
  16  0.701  0.116  0.398-   6 1.63   3 1.82   2 2.33   1 2.36

IMPORTANT INFORMATION: All symmetrisations will be switched off!
NOSYMM: (Re-)initialisation of all symmetry stuff for point group C_1.

                                     Primitive cell

  volume of cell :     154.3364

  direct lattice vectors                    reciprocal lattice vectors
    -2.876893119 -4.078216950  1.309248141    -0.173788012 -0.122602600  0.000023267
    -2.876893144  4.078216962  1.309248121    -0.173788011  0.122602599  0.000023268
    -0.000880527  0.000000016 -6.576847318    -0.069191702 -0.000000001 -0.152039271

  length of vectors
     5.159699430  5.159699448  6.576847377     0.212682090  0.212682088  0.167043203

  position of ions in fractional coordinates (direct lattice)
     0.320478748  0.679521245  0.250000175
     0.679521250  0.320478747  0.750000186
     0.999999734  0.000000135  0.499999929
     0.000000135  0.999999732  0.999999932
     0.323482680  0.676517012  0.750000188
     0.676517010  0.323482681  0.250000189
     0.064837663  0.935162837  0.250000133
     0.935162839  0.064837665  0.750000125
     0.749904769  0.646391858  0.408534850
     0.353608005  0.250095132  0.091465186
     0.250095123  0.353607992  0.591465186
     0.646391836  0.749904751  0.908534850
     0.115641007  0.700670292  0.898179825
     0.299329903  0.884358995  0.601819707
     0.884358998  0.299329927  0.101819709
     0.700670300  0.115640999  0.398179829

  ion indices of the primitive-cell ions
   primitive index   ion index
                 1           1
                 2           2
                 3           3
                 4           4
                 5           5
                 6           6
                 7           7
                 8           8
                 9           9
                10          10
                11          11
                12          12
                13          13
                14          14
                15          15
                16          16

 KPOINTS: K-points file

Automatic generation of k-mesh.
Space group operators:
 irot       det(A)        alpha          n_x          n_y          n_z        tau_x        tau_y        tau_z
    1     1.000000     0.000000     1.000000     0.000000     0.000000     0.000000     0.000000     0.000000

 Subroutine IBZKPT returns following result:

 Found    123 irreducible k-points:

 Following reciprocal coordinates:
            Coordinates               Weight
  0.000000  0.000000  0.000000      1.000000
  0.142857  0.000000 -0.000000      2.000000
  0.000000 -0.142857  0.000000      2.000000
  0.285714  0.000000  0.000000      2.000000
  0.000000 -0.285714 -0.000000      2.000000
  0.428571  0.000000 -0.000000      2.000000
  0.000000 -0.428571  0.000000      2.000000
  0.142857  0.142857 -0.000000      2.000000
  0.285714  0.142857  0.000000      2.000000
 -0.142857 -0.285714  0.000000      2.000000
  0.428571  0.142857 -0.000000      2.000000
 -0.142857 -0.428571  0.000000      2.000000
 -0.428571  0.142857 -0.000000      2.000000
 -0.142857  0.428571 -0.000000      2.000000
 -0.285714  0.142857 -0.000000      2.000000
 -0.142857  0.285714  0.000000      2.000000
 -0.142857  0.142857 -0.000000      2.000000
  0.285714  0.285714  0.000000      2.000000
  0.428571  0.285714 -0.000000      2.000000
 -0.285714 -0.428571 -0.000000      2.000000
 -0.428571  0.285714 -0.000000      2.000000
 -0.285714  0.428571  0.000000      2.000000
 -0.285714  0.285714 -0.000000      2.000000
  0.428571  0.428571 -0.000000      2.000000
 -0.428571  0.428571  0.000000      2.000000
  0.000000 -0.000000  0.200000      2.000000
  0.142857  0.000000  0.200000      2.000000
  0.000000 -0.142857 -0.200000      2.000000
  0.285714  0.000000  0.200000      2.000000
  0.000000 -0.285714 -0.200000      2.000000
  0.428571  0.000000  0.200000      2.000000
  0.000000 -0.428571 -0.200000      2.000000
 -0.428571 -0.000000  0.200000      2.000000
 -0.000000  0.428571 -0.200000      2.000000
 -0.285714 -0.000000  0.200000      2.000000
 -0.000000  0.285714 -0.200000      2.000000
 -0.142857 -0.000000  0.200000      2.000000
  0.000000  0.142857 -0.200000      2.000000
  0.142857  0.142857  0.200000      2.000000
  0.285714  0.142857  0.200000      2.000000
 -0.142857 -0.285714 -0.200000      2.000000
  0.428571  0.142857  0.200000      2.000000
 -0.142857 -0.428571 -0.200000      2.000000
 -0.428571  0.142857  0.200000      2.000000
 -0.142857  0.428571 -0.200000      2.000000
 -0.285714  0.142857  0.200000      2.000000
 -0.142857  0.285714 -0.200000      2.000000
 -0.142857  0.142857  0.200000      2.000000
 -0.142857  0.142857 -0.200000      2.000000
  0.285714  0.285714  0.200000      2.000000
  0.428571  0.285714  0.200000      2.000000
 -0.285714 -0.428571 -0.200000      2.000000
 -0.428571  0.285714  0.200000      2.000000
 -0.285714  0.428571 -0.200000      2.000000
 -0.285714  0.285714  0.200000      2.000000
 -0.285714  0.285714 -0.200000      2.000000
 -0.142857  0.285714  0.200000      2.000000
 -0.285714  0.142857 -0.200000      2.000000
  0.428571  0.428571  0.200000      2.000000
 -0.428571  0.428571  0.200000      2.000000
[...]
 -0.428571  0.428571  0.400000      2.000000
 -0.428571  0.428571 -0.400000      2.000000
 -0.285714  0.428571  0.400000      2.000000
 -0.428571  0.285714 -0.400000      2.000000
 -0.142857  0.428571  0.400000      2.000000
 -0.428571  0.142857 -0.400000      2.000000
 -0.428571 -0.428571  0.400000      2.000000
 -0.285714 -0.428571  0.400000      2.000000
  0.428571  0.285714 -0.400000      2.000000
 -0.142857 -0.428571  0.400000      2.000000
  0.428571  0.142857 -0.400000      2.000000
 -0.285714 -0.285714  0.400000      2.000000
 -0.142857 -0.285714  0.400000      2.000000
  0.285714  0.142857 -0.400000      2.000000
 -0.142857 -0.142857  0.400000      2.000000

 Following cartesian coordinates:
            Coordinates               Weight
  0.000000  0.000000  0.000000      1.000000
 -0.024827 -0.017515  0.000003      2.000000
  0.024827 -0.017515 -0.000003      2.000000
 -0.049654 -0.035029  0.000007      2.000000
  0.049654 -0.035029 -0.000007      2.000000
 -0.074481 -0.052544  0.000010      2.000000
  0.074481 -0.052544 -0.000010      2.000000
 -0.049654 -0.000000  0.000007      2.000000
 -0.074481 -0.017515  0.000010      2.000000
  0.074481 -0.017515 -0.000010      2.000000
 -0.099307 -0.035029  0.000013      2.000000
  0.099307 -0.035029 -0.000013      2.000000
  0.049654  0.070059 -0.000007      2.000000
 -0.049654  0.070059  0.000007      2.000000
  0.024827  0.052544 -0.000003      2.000000
 -0.024827  0.052544  0.000003      2.000000
  0.000000  0.035029  0.000000      2.000000
 -0.099307 -0.000000  0.000013      2.000000
 -0.124134 -0.017515  0.000017      2.000000
  0.124134 -0.017515 -0.000017      2.000000
  0.024827  0.087573 -0.000003      2.000000
 -0.024827  0.087573  0.000003      2.000000
  0.000000  0.070059  0.000000      2.000000
 -0.148961 -0.000000  0.000020      2.000000
  0.000000  0.105088  0.000000      2.000000
[...]
  o =  0.9449  v =  0.4955 -0.8686 -0.0000  0.0000  0.0000  0.0000  0.0000  0.0000  0.0000  0.0000      0.0000  0.0000  0.0000  0.0000  0.0000  0.0000  0.0000  0.0000  0.0000  0.0000
  o =  0.9629  v =  0.8686  0.4955  0.0002  0.0001 -0.0000  0.0000  0.0000  0.0000  0.0000  0.0000      0.0000  0.0000  0.0000  0.0000  0.0000  0.0000  0.0000  0.0000  0.0000  0.0000
  o =  0.9630  v =  0.0002  0.0001 -0.9209 -0.3723  0.1153  0.0000  0.0000  0.0000  0.0000  0.0000      0.0000  0.0000  0.0000  0.0000  0.0000  0.0000  0.0000  0.0000  0.0000  0.0000
  o =  0.9686  v =  0.0000  0.0000  0.1194  0.0121  0.9928  0.0000  0.0000  0.0000  0.0000  0.0000      0.0000  0.0000  0.0000  0.0000  0.0000  0.0000  0.0000  0.0000  0.0000  0.0000
atom =   2  type =  1  l = 2

 onsite density matrix

[...]

  0.0362  0.0098  0.0000  0.0000  0.0000
  0.0098  0.0214  0.0000  0.0000  0.0000
  0.0000  0.0000  0.0426  0.0073  0.0140
  0.0000  0.0000  0.0073  0.0116 -0.0035
  0.0000  0.0000  0.0140 -0.0035  0.0571

 occupancies and eigenvectors

  o =  0.0090  v =  0.0000  0.0000  0.0000  0.0000  0.0000 -0.0000  0.0000 -0.2677  0.9522  0.1472      0.0000  0.0000  0.0000  0.0000  0.0000  0.0000  0.0000  0.0000  0.0000  0.0000
  o =  0.0165  v =  0.0000  0.0000  0.0000  0.0000  0.0000 -0.4480  0.8940 -0.0000 -0.0000  0.0000      0.0000  0.0000  0.0000  0.0000  0.0000  0.0000  0.0000  0.0000  0.0000  0.0000
  o =  0.0366  v =  0.0000  0.0000  0.0000  0.0000  0.0000 -0.0003 -0.0002 -0.8095 -0.3052  0.5016      0.0000  0.0000  0.0000  0.0000  0.0000  0.0000  0.0000  0.0000  0.0000  0.0000
  o =  0.0411  v =  0.0000  0.0000  0.0000  0.0000  0.0000 -0.8940 -0.4480  0.0004  0.0001  0.0000      0.0000  0.0000  0.0000  0.0000  0.0000  0.0000  0.0000  0.0000  0.0000  0.0000
  o =  0.0656  v =  0.0000  0.0000  0.0000  0.0000  0.0000 -0.0002 -0.0001 -0.5225 -0.0151 -0.8525      0.0000  0.0000  0.0000  0.0000  0.0000  0.0000  0.0000  0.0000  0.0000  0.0000
  o =  0.9391  v =  0.0000 -0.0000 -0.3711  0.9280  0.0333  0.0000  0.0000  0.0000  0.0000  0.0000      0.0000  0.0000  0.0000  0.0000  0.0000  0.0000  0.0000  0.0000  0.0000  0.0000
  o =  0.9449  v =  0.4955 -0.8686  0.0000 -0.0000 -0.0000  0.0000  0.0000  0.0000  0.0000  0.0000      0.0000  0.0000  0.0000  0.0000  0.0000  0.0000  0.0000  0.0000  0.0000  0.0000
  o =  0.9629  v =  0.8686  0.4955 -0.0002 -0.0001  0.0000  0.0000  0.0000  0.0000  0.0000  0.0000      0.0000  0.0000  0.0000  0.0000  0.0000  0.0000  0.0000  0.0000  0.0000  0.0000
  o =  0.9630  v = -0.0002 -0.0001 -0.9209 -0.3723  0.1153  0.0000  0.0000  0.0000  0.0000  0.0000      0.0000  0.0000  0.0000  0.0000  0.0000  0.0000  0.0000  0.0000  0.0000  0.0000
  o =  0.9686  v = -0.0000 -0.0000  0.1194  0.0122  0.9928  0.0000  0.0000  0.0000  0.0000  0.0000      0.0000  0.0000  0.0000  0.0000  0.0000  0.0000  0.0000  0.0000  0.0000  0.0000

 eigenvalue-minimisations  : 17715
 total energy-change (2. order) : 0.3391184E-05  (-0.2758822E-07)
 number of electron     102.0000010 magnetization       9.9999996
 augmentation part       20.8862285 magnetization       6.6592245

 Free energy of the ion-electron system (eV)
  alpha Z        PSCENC =       297.91288146
  Ewald energy   TEWEN  =     -6531.80334775
  -Hartree energ DENC   =     -2440.40030111
  -exchange      EXHF   =         0.00000000
  -V(xc)+E(xc)   XCENC  =       502.34361730
  PAW double counting   =     16242.89965775   -16346.63277331
  entropy T*S    EENTRO =        -0.00000000
  eigenvalues    EBANDS =      -692.04492232
  atomic energy  EATOM  =      8786.36651486
  Solvation  Ediel_sol  =         0.00000000
  free energy    TOTEN  =      -181.35867313 eV

  energy without entropy =     -181.35867313  energy(sigma->0) =     -181.35867313

 average (electrostatic) potential at core
  the test charge radii are     0.9577  0.9892  0.7215
  (the norm of the test charge is              1.0000)
       1 -72.5710       2 -72.5710       3 -86.4161       4 -86.4161       5 -86.0372
       6 -86.0372       7 -71.8453       8 -71.8453       9 -72.7626      10 -72.7626
      11 -72.7626      12 -72.7626      13 -73.0685      14 -73.0685      15 -73.0685
      16 -73.0685

 E-fermi :   5.9287     XC(G=0): -11.9715     alpha+bet :-13.7383

[...]

 k-point     1 :       0.0000    0.0000    0.0000
  band No.  band energies     occupation
      1     -45.5885      1.00000
      2     -45.5881      1.00000
      3     -45.4425      1.00000
      4     -45.4388      1.00000
      5     -45.3735      1.00000
      6     -45.3732      1.00000
      7     -16.6337      1.00000
      8     -15.4254      1.00000
      9     -15.0005      1.00000
     10     -14.4038      1.00000
     11     -14.3942      1.00000
     12     -14.0790      1.00000
     13     -13.9650      1.00000
     14     -13.7843      1.00000
     15     -13.6135      1.00000
     16     -13.3421      1.00000
     17      -4.2434      1.00000
     18      -3.9645      1.00000
     19      -3.4316      1.00000
     20      -2.0646      1.00000
     21      -1.7731      1.00000
     22      -1.3099      1.00000
     23      -1.2154      1.00000
     24      -0.9214      1.00000
     25      -0.3674      1.00000
     26      -0.0101      1.00000
     27       0.2438      1.00000
     28       0.4631      1.00000
     29       0.7973      1.00000
     30       0.8660      1.00000
     31       0.9667      1.00000
     32       1.4243      1.00000
     33       1.7532      1.00000
     34       1.8872      1.00000
     35       1.9810      1.00000
     36       2.0870      1.00000
     37       2.2154      1.00000
     38       2.3969      1.00000
     39       2.6314      1.00000
     40       2.8191      1.00000
     41       2.9490      1.00000
     42       3.0562      1.00000
     43       3.0962      1.00000
     44       3.2455      1.00000
     45       3.2583      1.00000
     46       3.6174      1.00000
     47       3.7816      1.00000
     48       3.9174      1.00000
     49       3.9591      1.00000
     50       4.2062      1.00000
     51       4.8154      1.00000
     52       4.8415      1.00000
     53       5.0787      1.00000
     54       5.1681      1.00000
     55       5.4148      1.00000
     56       5.4316      1.00000
     57       9.8067      0.00000
     58      13.0935      0.00000
     59      13.1328      0.00000
     60      13.6425      0.00000
     61      13.6761      0.00000
     62      14.3425      0.00000
     63      14.5167      0.00000
     64      14.9302      0.00000
     65      15.3095      0.00000
     66      16.0966      0.00000

[...]

 spin component 2

[...]

 k-point   123 :      -0.1429   -0.1429    0.4000
  band No.  band energies     occupation
      1     -39.0153      1.00000
      2     -39.0144      1.00000
      3     -38.8379      1.00000
      4     -38.8320      1.00000
      5     -38.8052      1.00000
      6     -38.8049      1.00000
      7     -16.3100      1.00000
      8     -15.5503      1.00000
      9     -15.0473      1.00000
     10     -14.5893      1.00000
     11     -14.3287      1.00000
     12     -14.0904      1.00000
     13     -13.8487      1.00000
     14     -13.7961      1.00000
     15     -13.2278      1.00000
     16     -13.1813      1.00000
     17      -4.4797      1.00000
     18      -3.8925      1.00000
     19      -3.0584      1.00000
     20      -1.7118      1.00000
     21      -1.3140      1.00000
     22      -0.9839      1.00000
     23      -0.8489      1.00000
     24      -0.6380      1.00000
     25      -0.3279      1.00000
     26      -0.1319      1.00000
     27       0.4439      1.00000
     28       0.9025      1.00000
     29       0.9743      1.00000
     30       1.3619      1.00000
     31       1.9192      1.00000
     32       1.9509      1.00000
     33       2.1456      1.00000
     34       2.1537      1.00000
     35       2.3140      1.00000
     36       2.4253      1.00000
     37       2.7391      1.00000
     38       3.0048      1.00000
     39       3.2252      1.00000
     40       3.2757      1.00000
     41       3.3314      1.00000
     42       3.6569      1.00000
     43       3.7936      1.00000
     44       3.9493      1.00000
     45       4.7522      1.00000
     46       4.8888      1.00000
     47      10.6794      0.00000
     48      11.1606      0.00000
     49      11.2362      0.00000
     50      11.2528      0.00000
     51      11.6986      0.00000
     52      11.7009      0.00000
     53      11.8413      0.00000
     54      11.8700      0.00000
     55      11.8748      0.00000
     56      12.1523      0.00000
     57      12.2525      0.00000
     58      13.7907      0.00000
     59      13.9162      0.00000
     60      13.9761      0.00000
     61      14.6791      0.00000
     62      14.9919      0.00000
     63      15.3619      0.00000
     64      15.5918      0.00000
     65      15.9878      0.00000
     66      16.0602      0.00000

 soft charge-density along one line, spin component           1
         0         1         2         3         4         5         6         7         8         9
 total charge-density along one line

 soft charge-density along one line, spin component           2
         0         1         2         3         4         5         6         7         8         9
 total charge-density along one line

------------------------ aborting loop because EDIFF is reached ----------------------------------------

 total charge

# of ion       s       p       d       tot
    1        0.177   6.139   4.930  11.246
    2        0.177   6.139   4.930  11.246
    3        0.560   0.837   0.000   1.397
    4        0.560   0.837   0.000   1.397
    5        0.658   1.028   0.000   1.686
    6        0.658   1.028   0.000   1.686
    7        1.560   3.702   0.000   5.262
    8        1.560   3.702   0.000   5.262
    9        1.565   3.677   0.000   5.242
   10        1.565   3.677   0.000   5.242
   11        1.565   3.677   0.000   5.242
   12        1.565   3.677   0.000   5.242
   13        1.566   3.665   0.000   5.232
   14        1.566   3.665   0.000   5.232
   15        1.566   3.665   0.000   5.232
   16        1.566   3.665   0.000   5.232
tot         18.437  52.781   9.860  81.078

 magnetization (x)

[...]

  FORCE on cell =-STRESS in cart. coord.  units (eV):
  Direction    XX          YY          ZZ          XY          YZ          ZX
  Alpha Z   297.91288   297.91288   297.91288
  Ewald   -2223.27546 -1821.66391 -2486.87707     0.00004    -0.00002   212.03980
  Hartree   829.54828   999.91868   610.93885     0.00003    -0.00003   165.79439
  E(xc)    -551.74123  -552.51970  -552.30204     0.00000    -0.00000     0.07955
  Local    -169.00519  -722.25212   316.12476    -0.00007     0.00006  -380.30136
  n-local  -207.23890  -200.47451  -200.89182     0.00000     0.00000     0.37519
  augment   263.43639   263.28543   260.86581     0.00000    -0.00000     1.36065
  Kinetic  1760.43863  1736.19685  1754.45846     0.00000    -0.00000     0.68369
  Fock        0.00000     0.00000     0.00000     0.00000     0.00000     0.00000
  Total       0.07540     0.40360     0.22983     0.00000    -0.00000     0.03190
  in kB       0.78276     4.18978     2.38586     0.00005    -0.00000     0.33119

 VOLUME and BASIS-vectors are now :
  energy-cutoff  :      520.00
  volume of cell :      154.34
      direct lattice vectors                 reciprocal lattice vectors
    -2.876893119 -4.078216950  1.309248141    -0.173788012 -0.122602600  0.000023267
    -2.876893144  4.078216962  1.309248121    -0.173788011  0.122602599  0.000023268
    -0.000880527  0.000000016 -6.576847318    -0.069191702 -0.000000001 -0.152039271

  length of vectors
     5.159699430  5.159699448  6.576847377     0.212682090  0.212682088  0.167043203

 FORCES acting on ions
    electron-ion (+dipol)            ewald-force                    non-local-force                 convergence-correction
   -.454E-02 0.978E+02 0.277E-02   0.259E-03 -.934E+02 0.358E-03   0.431E-02 -.432E+01 -.319E-02   -.645E-05 0.124E-03 0.453E-05
   -.457E-02 -.978E+02 0.273E-02   0.288E-03 0.934E+02 0.399E-03   0.431E-02 0.432E+01 -.319E-02   -.684E-05 -.124E-03 0.502E-05
   -.210E-03 0.289E-03 0.124E-03   0.186E-03 -.204E-03 -.970E-04   0.241E-04 -.791E-04 -.216E-04   0.786E-07 0.667E-06 0.481E-06
   -.219E-03 -.297E-03 0.124E-03   0.194E-03 0.211E-03 -.963E-04   0.249E-04 0.800E-04 -.202E-04   0.211E-06 -.395E-06 -.151E-06
   0.311E-03 -.153E+02 -.599E-03   -.249E-03 0.147E+02 0.470E-03   -.749E-04 0.598E+00 0.193E-03   0.422E-06 -.576E-05 -.567E-06
   0.312E-03 0.153E+02 -.564E-03   -.250E-03 -.147E+02 0.440E-03   -.790E-04 -.598E+00 0.188E-03   0.272E-06 0.527E-05 -.662E-06
   -.966E-04 -.854E+02 -.198E-03   -.131E-05 0.779E+02 0.174E-03   0.761E-04 0.753E+01 0.425E-04   0.258E-06 -.351E-04 -.148E-06
   -.114E-03 0.854E+02 -.157E-03   0.154E-04 -.779E+02 0.133E-03   0.776E-04 -.753E+01 0.390E-04   0.133E-06 0.355E-04 0.133E-06
   0.234E+01 0.494E+02 0.526E+02   -.748E+01 -.374E+02 -.661E+02   0.514E+01 -.119E+02 0.136E+02   -.146E-03 0.126E-03 -.682E-04
   -.234E+01 0.494E+02 -.526E+02   0.748E+01 -.374E+02 0.661E+02   -.514E+01 -.119E+02 -.136E+02   0.146E-03 0.126E-03 0.680E-04
   -.234E+01 -.494E+02 -.526E+02   0.748E+01 0.374E+02 0.661E+02   -.514E+01 0.119E+02 -.136E+02   0.146E-03 -.126E-03 0.683E-04
   0.234E+01 -.494E+02 0.526E+02   -.748E+01 0.374E+02 -.661E+02   0.514E+01 0.119E+02 0.136E+02   -.146E-03 -.126E-03 -.681E-04
   0.209E+02 0.172E+02 -.570E+02   -.799E+01 -.151E+02 0.417E+02   -.129E+02 -.211E+01 0.153E+02   0.910E-04 0.120E-03 -.184E-03
   -.209E+02 0.172E+02 0.570E+02   0.799E+01 -.151E+02 -.417E+02   0.129E+02 -.211E+01 -.153E+02   -.903E-04 0.120E-03 0.184E-03
   -.209E+02 -.172E+02 0.570E+02   0.799E+01 0.151E+02 -.417E+02   0.129E+02 0.211E+01 -.153E+02   -.904E-04 -.121E-03 0.184E-03
   0.209E+02 -.172E+02 -.570E+02   -.799E+01 0.151E+02 0.417E+02   -.129E+02 0.211E+01 0.153E+02   0.907E-04 -.120E-03 -.184E-03
   -.841E-02 -.211E-05 0.571E-02   0.124E-13 0.480E-13 -.426E-13   0.843E-02 0.164E-05 -.567E-02   -.112E-04 -.162E-07 0.856E-05

 POSITION                                       TOTAL-FORCE (eV/Angst)
     -2.87711      1.46425     -0.33496         0.000017      0.003933     -0.000052
     -2.87755     -1.46425     -3.62339         0.000017     -0.003933     -0.000051
     -2.87733     -4.07822     -1.97918        -0.000000      0.000003      0.000002
     -2.87777      4.07822     -5.26760         0.000000     -0.000002      0.000003
     -2.87755      1.43975     -3.62339        -0.000016      0.011526      0.000069
     -2.87711     -1.43975     -0.33497        -0.000020     -0.011527      0.000067
     -2.87711      3.54937     -0.33496        -0.000022     -0.004045      0.000016
     -2.87755     -3.54937     -3.62339        -0.000022      0.004044      0.000012
     -4.01736     -0.42215     -0.85877        -0.007741      0.015660      0.022787
     -1.73687     -0.42215      0.18884         0.007746      0.015644     -0.022807
     -1.73731      0.42215     -3.09958         0.007744     -0.015643     -0.022806
     -4.01780      0.42215     -4.14720        -0.007745     -0.015662      0.022786
     -2.34923      2.38588     -4.83844         0.008381     -0.002827     -0.000629
     -3.40588      2.38588     -2.40833        -0.008360     -0.002916      0.000614
     -3.40544     -2.38588      0.88009        -0.008359      0.002914      0.000614
     -2.34879     -2.38588     -1.55001         0.008380      0.002830     -0.000627
    total drift:                                0.000011     -0.000000      0.000043

  FREE ENERGIE OF THE ION-ELECTRON SYSTEM (eV)
  free  energy   TOTEN  =      -181.35867313 eV

  energy  without entropy=     -181.35867313  energy(sigma->0) =     -181.35867313

 reached required accuracy - stopping structural energy minimisation

 total charge

[...]

 magnetization (x)

# of ion       s       p       d       tot
    1        0.024   0.019   4.601   4.644
    2        0.024   0.019   4.601   4.644
    3        0.000   0.002   0.000   0.002
    4        0.000   0.002   0.000   0.002
    5        0.000   0.002   0.000   0.002
    6        0.000   0.002   0.000   0.002
    7        0.003   0.022   0.000   0.026
    8        0.003   0.022   0.000   0.026
    9        0.003   0.017   0.000   0.020
   10        0.003   0.017   0.000   0.020
   11        0.003   0.017   0.000   0.020
   12        0.003   0.017   0.000   0.020
   13        0.006   0.028   0.000   0.034
   14        0.006   0.028   0.000   0.034
   15        0.006   0.028   0.000   0.034
   16        0.006   0.028   0.000   0.034
tot          0.091   0.270   9.202   9.564