 vasp.6.1.2 22Jul20 (build Mar 19 2021 09:51:12) complex

 executed on             LinuxIFC date 2021.07.25  11:17:13

 INCAR:
 POTCAR:    PAW_PBE Ca_sv 06Sep2000
 POTCAR:    PAW_PBE Fe_pv 02Aug2007
 POTCAR:    PAW_PBE O 08Apr2002
 POTCAR:    PAW_PBE Ca_sv 06Sep2000
   VRHFIN =Ca: 3s3p4s

   TITEL  = PAW_PBE Ca_sv 06Sep2000
   POMASS =   40.078; ZVAL   =   10.000    mass and valenz
   ENMAX  =  266.622; ENMIN  =  199.967 eV

 POTCAR:    PAW_PBE Fe_pv 02Aug2007
   VRHFIN =Fe:  3pd7s1

   TITEL  = PAW_PBE Fe_pv 02Aug2007
   POMASS =   55.847; ZVAL   =   14.000    mass and valenz
   ENMAX  =  293.238; ENMIN  =  219.928 eV

 POTCAR:    PAW_PBE O 08Apr2002
   VRHFIN =O: s2p4

   TITEL  = PAW_PBE O 08Apr2002
   POMASS =   16.000; ZVAL   =    6.000    mass and valenz
   ENMAX  =  400.000; ENMIN  =  300.000 eV

 Optimization of the real space projectors (new method)

 maximal supplied QI-value         = 16.25
 optimisation between [QCUT,QGAM] = [ 11.54, 23.24] = [ 37.28,151.24] Ry
 Optimized for a Real-space Cutoff    1.58 Angstroem

   l    n(q)    QCUT    max X(q) W(low)/X(q) W(high)/X(q)  e(spline)
   0     11    11.539    11.817    0.25E-04    0.22E-05    0.26E-07
   0     11    11.539     8.461    0.39E-04    0.49E-05    0.55E-07
   1     11    11.539     3.957    0.21E-05    0.44E-05    0.32E-07
   1     11    11.539     4.314    0.56E-04    0.44E-04    0.19E-06
   2     10    11.539    14.565    0.25E-03    0.21E-04    0.75E-06
   2     10    11.539    14.552    0.23E-03    0.22E-04    0.72E-06
 Optimization of the real space projectors (new method)

[...]

   l    n(q)    QCUT    max X(q) W(low)/X(q) W(high)/X(q)  e(spline)
   1     10    11.565     4.267    0.91E-04    0.15E-03    0.13E-06
   1     10    11.565     5.750    0.14E-03    0.22E-03    0.20E-06
   2      9    11.565    53.656    0.13E-03    0.57E-04    0.16E-06
   2      9    11.565    49.521    0.13E-03    0.59E-04    0.16E-06
   0     10    11.565    31.246    0.61E-04    0.74E-05    0.89E-07
   0     10    11.565    12.201    0.44E-04    0.68E-05    0.74E-07
 Optimization of the real space projectors (new method)

 maximal supplied QI-value         = 24.76
 optimisation between [QCUT,QGAM] = [ 11.64, 23.27] = [ 37.91,151.63] Ry
 Optimized for a Real-space Cutoff    1.14 Angstroem

   l    n(q)    QCUT    max X(q) W(low)/X(q) W(high)/X(q)  e(spline)
   0      8    11.635    20.381    0.10E-03    0.33E-03    0.24E-06
   0      8    11.635    15.268    0.11E-03    0.35E-03    0.26E-06
   1      7    11.635     5.964    0.24E-03    0.31E-03    0.30E-06
   1      7    11.635     5.382    0.22E-03    0.25E-03    0.26E-06
  PAW_PBE Ca_sv 06Sep2000               :
  PAW_PBE Fe_pv 02Aug2007               :
  PAW_PBE O 08Apr2002                   :

 POSCAR: Ca2 Fe2 O4
  positions in direct lattice
  velocities in cartesian coordinates

 METAGGA = SCAN     LMAXTAU =  6    LMIXTAU =  F

 ion  position               nearest neighbor table
   1  0.500  0.000  0.423-   6 2.35   8 2.35   7 2.40   5 2.40   8 2.50   6 2.50
   2  0.000  0.500  0.577-   7 2.35   5 2.35   8 2.40   6 2.40   5 2.50   7 2.50
   3  0.500  0.500  1.000-   6 1.99   5 2.00   7 2.00   8 2.00
   4  0.000  1.000  0.000-   7 2.00   8 2.00   6 2.00   5 2.00
   5  0.776  0.276  0.109-   3 2.00   4 2.00   2 2.35   1 2.40   2 2.50
   6  0.724  0.776  0.891-   3 1.99   4 2.00   1 2.35   2 2.40   1 2.50
   7  0.224  0.724  0.110-   4 2.00   3 2.00   2 2.35   1 2.40   2 2.50
   8  0.276  0.224  0.891-   4 2.00   3 2.00   1 2.35   2 2.40   1 2.50

IMPORTANT INFORMATION: All symmetrisations will be switched off!
NOSYMM: (Re-)initialisation of all symmetry stuff for point group C_1.

                                     Primitive cell

  volume of cell :     102.5090

  direct lattice vectors                    reciprocal lattice vectors
     5.515417863 -0.000018842 -0.000046067     0.181309925  0.000000618  0.000000925
    -0.000018798  5.515452768  0.000022881     0.000000619  0.181308778 -0.000000526
    -0.000017183  0.000009775  3.369786314     0.000002479 -0.000001231  0.296754722

  length of vectors
     5.515417864  5.515452768  3.369786314     0.181309925  0.181308778  0.296754722

  position of ions in fractional coordinates (direct lattice)
     0.500007330  0.000005164  0.423194936
     0.000007778  0.499987412  0.576798981
     0.499999649  0.500012448  0.999993997
     0.000000958  0.999991868  0.000000183
     0.776198602  0.276210468  0.109477155
     0.723789110  0.776198683  0.890502504
     0.223797191  0.723807603  0.109512935
     0.276199383  0.223786353  0.890519308

  ion indices of the primitive-cell ions
   primitive index   ion index
                 1           1
                 2           2
                 3           3
                 4           4
                 5           5
                 6           6
                 7           7
                 8           8

 KPOINTS: K-points file

Automatic generation of k-mesh.
Space group operators:
 irot       det(A)        alpha          n_x          n_y          n_z        tau_x        tau_y        tau_z
    1     1.000000     0.000000     1.000000     0.000000     0.000000     0.000000     0.000000     0.000000

 Subroutine IBZKPT returns following result:

 Found    184 irreducible k-points:

 Following reciprocal coordinates:
            Coordinates               Weight
  0.000000  0.000000  0.000000      1.000000
  0.166667 -0.000000 -0.000000      2.000000
 -0.000000 -0.166667  0.000000      2.000000
  0.333333 -0.000000 -0.000000      2.000000
 -0.000000 -0.333333 -0.000000      2.000000
  0.500000  0.000000 -0.000000      1.000000
  0.000000  0.500000 -0.000000      1.000000
  0.166667  0.166667 -0.000000      2.000000
  0.166667 -0.166667 -0.000000      2.000000
  0.333333  0.166667 -0.000000      2.000000
  0.166667 -0.333333 -0.000000      2.000000
 -0.333333  0.166667  0.000000      2.000000
 -0.166667 -0.333333  0.000000      2.000000
  0.500000  0.166667 -0.000000      2.000000
  0.166667  0.500000 -0.000000      2.000000
  0.333333  0.333333  0.000000      2.000000
  0.333333 -0.333333 -0.000000      2.000000
  0.500000  0.333333  0.000000      2.000000
  0.333333  0.500000  0.000000      2.000000
  0.500000  0.500000 -0.000000      1.000000
  0.000000  0.000000  0.100000      2.000000
  0.166667 -0.000000  0.100000      2.000000
  0.000000 -0.166667  0.100000      2.000000
 -0.166667  0.000000  0.100000      2.000000
  0.000000  0.166667  0.100000      2.000000
  0.333333 -0.000000  0.100000      2.000000
 -0.000000 -0.333333  0.100000      2.000000
 -0.333333 -0.000000  0.100000      2.000000
  0.000000  0.333333  0.100000      2.000000
  0.500000 -0.000000  0.100000      2.000000
 -0.000000  0.500000  0.100000      2.000000
  0.166667  0.166667  0.100000      2.000000
  0.166667 -0.166667  0.100000      2.000000
 -0.166667 -0.166667  0.100000      2.000000
 -0.166667  0.166667  0.100000      2.000000
  0.333333  0.166667  0.100000      2.000000
  0.166667 -0.333333  0.100000      2.000000
 -0.333333 -0.166667  0.100000      2.000000
 -0.166667  0.333333  0.100000      2.000000
 -0.333333  0.166667 -0.100000      2.000000
 -0.166667 -0.333333 -0.100000      2.000000
  0.333333 -0.166667 -0.100000      2.000000
  0.166667  0.333333 -0.100000      2.000000
  0.500000  0.166667  0.100000      2.000000
  0.166667  0.500000  0.100000      2.000000
  0.500000 -0.166667  0.100000      2.000000
 -0.166667  0.500000  0.100000      2.000000
  0.333333  0.333333  0.100000      2.000000
  0.333333 -0.333333  0.100000      2.000000
 -0.333333 -0.333333  0.100000      2.000000
 -0.333333  0.333333  0.100000      2.000000
  0.500000  0.333333  0.100000      2.000000
  0.333333  0.500000  0.100000      2.000000
  0.500000 -0.333333  0.100000      2.000000
 -0.333333  0.500000  0.100000      2.000000
  0.500000  0.500000  0.100000      2.000000
  0.000000 -0.000000  0.200000      2.000000
  0.166667  0.000000  0.200000      2.000000
  0.000000 -0.166667  0.200000      2.000000
 -0.166667 -0.000000  0.200000      2.000000
[...]
  0.500000  0.000000  0.500000      1.000000
  0.000000  0.500000  0.500000      1.000000
  0.166667  0.166667  0.500000      2.000000
  0.166667 -0.166667  0.500000      2.000000
  0.333333  0.166667  0.500000      2.000000
  0.166667 -0.333333  0.500000      2.000000
 -0.333333  0.166667  0.500000      2.000000
 -0.166667 -0.333333  0.500000      2.000000
  0.500000  0.166667  0.500000      2.000000
  0.166667  0.500000  0.500000      2.000000
  0.333333  0.333333  0.500000      2.000000
  0.333333 -0.333333  0.500000      2.000000
  0.500000  0.333333  0.500000      2.000000
  0.333333  0.500000  0.500000      2.000000
  0.500000  0.500000  0.500000      1.000000

 Following cartesian coordinates:
            Coordinates               Weight
  0.000000  0.000000  0.000000      1.000000
  0.030218  0.000000  0.000000      2.000000
 -0.000000 -0.030218  0.000000      2.000000
  0.060437  0.000000  0.000000      2.000000
 -0.000000 -0.060436  0.000000      2.000000
  0.090655  0.000000  0.000000      1.000000
  0.000000  0.090654 -0.000000      1.000000
  0.030218  0.030218  0.000000      2.000000
  0.030218 -0.030218  0.000000      2.000000
  0.060437  0.030218  0.000000      2.000000
  0.030218 -0.060436  0.000000      2.000000
 -0.060437  0.030218 -0.000000      2.000000
 -0.030219 -0.060436  0.000000      2.000000
  0.090655  0.030218  0.000000      2.000000
  0.030219  0.090654 -0.000000      2.000000
  0.060437  0.060436  0.000000      2.000000
  0.060436 -0.060436  0.000000      2.000000
  0.090655  0.060437  0.000000      2.000000
  0.060437  0.090655  0.000000      2.000000
  0.090655  0.090655  0.000000      1.000000
  0.000000 -0.000000  0.029675      2.000000
  0.030219 -0.000000  0.029676      2.000000
  0.000000 -0.030218  0.029676      2.000000
 -0.030218 -0.000000  0.029675      2.000000
  0.000000  0.030218  0.029675      2.000000
  0.060437  0.000000  0.029676      2.000000
  0.000000 -0.060436  0.029676      2.000000
 -0.060436 -0.000000  0.029675      2.000000
  0.000000  0.060436  0.029675      2.000000
  0.090655  0.000000  0.029676      2.000000
  0.000001  0.090654  0.029675      2.000000
  0.030219  0.030218  0.029676      2.000000
  0.030218 -0.030218  0.029676      2.000000
 -0.030218 -0.030218  0.029675      2.000000
 -0.030218  0.030218  0.029675      2.000000
  0.060437  0.030218  0.029676      2.000000
  0.030218 -0.060436  0.029676      2.000000
 -0.060436 -0.030218  0.029675      2.000000
 -0.030218  0.060436  0.029675      2.000000
 -0.060437  0.030218 -0.029676      2.000000
 -0.030219 -0.060436 -0.029675      2.000000
  0.060436 -0.030218 -0.029675      2.000000
  0.030218  0.060436 -0.029675      2.000000
  0.090655  0.030218  0.029676      2.000000
  0.030219  0.090654  0.029675      2.000000
  0.090655 -0.030218  0.029676      2.000000
 -0.030218  0.090654  0.029675      2.000000
  0.060437  0.060436  0.029676      2.000000
  0.060437 -0.060436  0.029676      2.000000
 -0.060437 -0.060437  0.029675      2.000000
 -0.060436  0.060436  0.029675      2.000000
  0.090655  0.060436  0.029676      2.000000
[...]
  Ewald   -1602.96606 -1602.96593 -2718.42747     0.02157    -0.06281     0.00049
  Hartree  1028.82699  1028.82831   303.13108     0.01121    -0.03352    -0.00026
  E(xc)    -423.18485  -423.18490  -423.48873     0.00006    -0.00012     0.00001
  Local    -577.11436  -577.11655  1220.99746    -0.03267     0.09474    -0.00155
  n-local  -216.66827  -216.66825  -218.89375     0.00001     0.00041    -0.00028
  augment   378.80842   378.80843   396.77097     0.00010     0.00126     0.00062
  Kinetic  1043.28920  1043.28853  1070.99879     0.00028    -0.00126     0.00121
  Fock        0.00000     0.00000     0.00000     0.00000     0.00000     0.00000
  Total       0.15975     0.15831     0.25704     0.00056    -0.00129     0.00025
  in kB       2.49679     2.47434     4.01747     0.00878    -0.02023     0.00396

 VOLUME and BASIS-vectors are now :
  energy-cutoff  :      520.00
  volume of cell :      102.51
      direct lattice vectors                 reciprocal lattice vectors
     5.515417863 -0.000018842 -0.000046067     0.181309925  0.000000618  0.000000925
    -0.000018798  5.515452768  0.000022881     0.000000619  0.181308778 -0.000000526
    -0.000017183  0.000009775  3.369786314     0.000002479 -0.000001231  0.296754722

[...]

 FORCES acting on ions
    electron-ion (+dipol)            ewald-force                    non-local-force                 convergence-correction
   -.616E-02 -.237E-01 -.436E+02   0.558E-02 0.238E-01 0.431E+02   0.631E-04 -.704E-04 0.503E+00   0.307E-04 0.389E-04 0.171E-02
   0.439E-02 -.544E-02 0.436E+02   -.493E-02 0.502E-02 -.431E+02   -.199E-03 0.964E-03 -.502E+00   0.251E-04 -.345E-05 -.144E-02
   0.417E-01 0.543E-01 0.746E-02   -.385E-01 -.497E-01 -.688E-02   -.348E-02 -.589E-02 0.568E-04   -.555E-04 0.139E-04 0.251E-05
   0.486E-01 -.235E-01 0.985E-03   -.458E-01 0.196E-01 -.116E-02   -.333E-02 0.495E-02 0.175E-03   -.144E-04 -.363E-04 0.125E-05
   -.120E+02 -.120E+02 -.440E+02   0.127E+02 0.126E+02 0.454E+02   -.627E+00 -.626E+00 -.142E+01   0.508E-03 0.531E-03 0.236E-02
   0.120E+02 -.120E+02 0.440E+02   -.126E+02 0.127E+02 -.454E+02   0.625E+00 -.626E+00 0.142E+01   -.550E-03 0.556E-03 -.243E-02
   0.120E+02 0.120E+02 -.440E+02   -.126E+02 -.127E+02 0.454E+02   0.625E+00 0.625E+00 -.142E+01   -.521E-03 -.545E-03 0.238E-02
   -.120E+02 0.120E+02 0.440E+02   0.127E+02 -.126E+02 -.454E+02   -.628E+00 0.627E+00 0.142E+01   0.572E-03 -.533E-03 -.241E-02
   0.114E-01 0.540E-03 -.180E-03   -.142E-13 0.266E-13 0.142E-13   -.119E-01 -.375E-03 0.504E-03   -.499E-05 0.226E-04 0.168E-03

 POSITION                                       TOTAL-FORCE (eV/Angst)
      2.75774      0.00002      1.42605        -0.000413     -0.000004     -0.006691
      0.00002      2.75766      1.94370        -0.000644      0.000518      0.006801
      2.75768      2.75780      3.36975        -0.000279     -0.001290      0.000547
     -0.00001      5.51541      0.00002        -0.000490      0.000942     -0.000058
      4.28105      1.52341      0.36889         0.008180      0.006969     -0.015585
      3.99197      4.28108      3.00079        -0.006897      0.008185      0.015390
      1.23432      3.99212      0.36904        -0.007565     -0.008680     -0.015755
      1.52334      1.23429      3.00085         0.008108     -0.006641      0.015350
    total drift:                               -0.000542      0.000188      0.000492

  FREE ENERGIE OF THE ION-ELECTRON SYSTEM (eV)
  free  energy   TOTEN  =       -96.39630325 eV

  energy  without entropy=      -96.39630325  energy(sigma->0) =      -96.39630325

[...]

 d Force = 0.7099503E-04[ 0.680E-04, 0.740E-04]  d Energy =-0.9615335E-03 0.103E-02
 d Force =-0.1267456E+00[-0.127E+00,-0.127E+00]  d Ewald  =-0.7405926E+01 0.728E+01

 Steepest descent step on ions:
 trial-energy change:    0.000962  1 .order    0.000052   -0.000777    0.000882
  (g-gl).g = 0.777E-03      g.g   = 0.777E-03  gl.gl    = 0.000E+00
 g(Force)  = 0.739E-04   g(Stress)= 0.703E-03 ortho     = 0.000E+00
 gamma     =   0.00000
 trial     =   1.00000
 opt step  =   0.46857  (harmonic =   0.46857) maximal distance =0.00034788
 next E    =   -96.396485   (d E  =  -0.00018)

 real space projection operators:
  max/ min on nodes  :       1197.64       1073.19

[...]

 eigenvalue-minimisations  : 22401
 total energy-change (2. order) : 0.1429422E-04  (-0.7109588E-06)
 number of electron      71.9999994 magnetization       8.0000007
 augmentation part       24.8400674 magnetization       5.6236802

[...]

 Broyden mixing:
  rms(total) = 0.35461E-03    rms(broyden)= 0.35456E-03
  rms(prec ) = 0.47120E-03
  weight for this iteration     100.00

 eigenvalues of (default mixing * dielectric matrix)
  average eigenvalue GAMMA=   1.2289
  2.1402  2.1402  0.9825  0.7330  0.7330  0.6447

[...]

--------------------------------------- Iteration      3(   8)  ---------------------------------------

atom =   3  type =  2  l = 2

[...]

  o =  0.0403  v =  0.0000  0.0000  0.0000  0.0000  0.0000 -0.0000 -0.0075  0.0000 -1.0000 -0.0001      0.0000  0.0000  0.0000  0.0000  0.0000  0.0000  0.0000  0.0000  0.0000  0.0000
  o =  0.0403  v =  0.0000  0.0000  0.0000  0.0000  0.0000 -0.0000 -1.0000  0.0000  0.0075  0.0000      0.0000  0.0000  0.0000  0.0000  0.0000  0.0000  0.0000  0.0000  0.0000  0.0000
  o =  0.0568  v =  0.0000  0.0000  0.0000  0.0000  0.0000 -0.1785 -0.0000  0.0000  0.0001 -0.9839      0.0000  0.0000  0.0000  0.0000  0.0000  0.0000  0.0000  0.0000  0.0000  0.0000
  o =  0.1760  v =  0.0000  0.0000  0.0000  0.0000  0.0000 -0.9839  0.0000  0.0000  0.0000  0.1785      0.0000  0.0000  0.0000  0.0000  0.0000  0.0000  0.0000  0.0000  0.0000  0.0000
  o =  0.8109  v =  0.0000  0.0000  0.0000  0.0000  0.0000  0.0000  0.0000  1.0000  0.0000  0.0000      0.0000  0.0000  0.0000  0.0000  0.0000  0.0000  0.0000  0.0000  0.0000  0.0000
  o =  0.9135  v = -0.0000 -0.0000 -1.0000 -0.0001 -0.0000  0.0000  0.0000  0.0000  0.0000  0.0000      0.0000  0.0000  0.0000  0.0000  0.0000  0.0000  0.0000  0.0000  0.0000  0.0000
  o =  0.9547  v =  0.0000 -0.1049 -0.0001  0.9945  0.0001  0.0000  0.0000  0.0000  0.0000  0.0000      0.0000  0.0000  0.0000  0.0000  0.0000  0.0000  0.0000  0.0000  0.0000  0.0000
  o =  0.9547  v = -0.0000 -0.9945  0.0000 -0.1049  0.0000  0.0000  0.0000  0.0000  0.0000  0.0000      0.0000  0.0000  0.0000  0.0000  0.0000  0.0000  0.0000  0.0000  0.0000  0.0000
  o =  0.9639  v =  0.1628  0.0000 -0.0000 -0.0001  0.9867  0.0000  0.0000  0.0000  0.0000  0.0000      0.0000  0.0000  0.0000  0.0000  0.0000  0.0000  0.0000  0.0000  0.0000  0.0000
  o =  1.0016  v = -0.9867  0.0000 -0.0000 -0.0000  0.1628  0.0000  0.0000  0.0000  0.0000  0.0000      0.0000  0.0000  0.0000  0.0000  0.0000  0.0000  0.0000  0.0000  0.0000  0.0000
atom =   4  type =  2  l = 2

 onsite density matrix

[...]

  0.1722  0.0000 -0.0000 -0.0000  0.0209
  0.0000  0.0403  0.0000  0.0000  0.0000
 -0.0000  0.0000  0.8109  0.0001  0.0000
 -0.0000  0.0000  0.0001  0.0403 -0.0000
  0.0209  0.0000  0.0000 -0.0000  0.0606

 occupancies and eigenvectors

  o =  0.0403  v =  0.0000  0.0000  0.0000  0.0000  0.0000  0.0000 -0.9242  0.0000  0.3818  0.0001      0.0000  0.0000  0.0000  0.0000  0.0000  0.0000  0.0000  0.0000  0.0000  0.0000
  o =  0.0403  v =  0.0000  0.0000  0.0000  0.0000  0.0000 -0.0000 -0.3818  0.0001 -0.9242  0.0000      0.0000  0.0000  0.0000  0.0000  0.0000  0.0000  0.0000  0.0000  0.0000  0.0000
  o =  0.0568  v =  0.0000  0.0000  0.0000  0.0000  0.0000 -0.1785  0.0001 -0.0000  0.0000  0.9839      0.0000  0.0000  0.0000  0.0000  0.0000  0.0000  0.0000  0.0000  0.0000  0.0000
  o =  0.1760  v =  0.0000  0.0000  0.0000  0.0000  0.0000 -0.9839 -0.0000 -0.0000  0.0000 -0.1785      0.0000  0.0000  0.0000  0.0000  0.0000  0.0000  0.0000  0.0000  0.0000  0.0000
  o =  0.8109  v =  0.0000  0.0000  0.0000  0.0000  0.0000  0.0000 -0.0000 -1.0000 -0.0001 -0.0000      0.0000  0.0000  0.0000  0.0000  0.0000  0.0000  0.0000  0.0000  0.0000  0.0000
  o =  0.9135  v =  0.0000 -0.0000 -1.0000  0.0000 -0.0000  0.0000  0.0000  0.0000  0.0000  0.0000      0.0000  0.0000  0.0000  0.0000  0.0000  0.0000  0.0000  0.0000  0.0000  0.0000
  o =  0.9547  v =  0.0000 -0.9248  0.0001  0.3803  0.0000  0.0000  0.0000  0.0000  0.0000  0.0000      0.0000  0.0000  0.0000  0.0000  0.0000  0.0000  0.0000  0.0000  0.0000  0.0000
  o =  0.9547  v = -0.0000 -0.3803 -0.0000 -0.9248  0.0001  0.0000  0.0000  0.0000  0.0000  0.0000      0.0000  0.0000  0.0000  0.0000  0.0000  0.0000  0.0000  0.0000  0.0000  0.0000
  o =  0.9639  v = -0.1628  0.0000 -0.0000  0.0001  0.9867  0.0000  0.0000  0.0000  0.0000  0.0000      0.0000  0.0000  0.0000  0.0000  0.0000  0.0000  0.0000  0.0000  0.0000  0.0000
  o =  1.0016  v = -0.9867 -0.0000 -0.0000 -0.0000 -0.1628  0.0000  0.0000  0.0000  0.0000  0.0000      0.0000  0.0000  0.0000  0.0000  0.0000  0.0000  0.0000  0.0000  0.0000  0.0000

 eigenvalue-minimisations  : 18414
 total energy-change (2. order) :-0.1585693E-05  (-0.1725160E-06)
 number of electron      71.9999994 magnetization       8.0000007
 augmentation part       24.8398968 magnetization       5.6236337

 Free energy of the ion-electron system (eV)
  alpha Z        PSCENC =       368.56943780
  Ewald energy   TEWEN  =     -5920.87802987
  -Hartree energ DENC   =     -2362.52804117
  -exchange      EXHF   =         0.00000000
  -V(xc)+E(xc)   XCENC  =       406.49608260
  PAW double counting   =      7951.82107584    -8164.15601546
  entropy T*S    EENTRO =        -0.00000000
  eigenvalues    EBANDS =     -1032.16518215
  atomic energy  EATOM  =      8656.44478857
  Solvation  Ediel_sol  =         0.00000000
  free energy    TOTEN  =       -96.39588384 eV

  energy without entropy =      -96.39588384  energy(sigma->0) =      -96.39588384

 average (electrostatic) potential at core
  the test charge radii are     1.1137  0.9500  0.7215
  (the norm of the test charge is              1.0000)
       1 -47.3982       2 -47.3984       3 -84.4560       4 -84.4560       5 -73.7196
       6 -73.7196       7 -73.7196       8 -73.7196

 E-fermi :   5.3870     XC(G=0): -11.5685     alpha+bet :-12.6305

[...]

 spin component 2

[...]

 k-point   184 :       0.5000    0.5000    0.5000
  band No.  band energies     occupation
      1     -47.7653      1.00000
      2     -47.7653      1.00000
      3     -47.7615      1.00000
      4     -47.7615      1.00000
      5     -47.6854      1.00000
      6     -47.6854      1.00000
      7     -36.3857      1.00000
      8     -36.3855      1.00000
      9     -17.0217      1.00000
     10     -17.0216      1.00000
     11     -16.7460      1.00000
     12     -16.7460      1.00000
     13     -16.5329      1.00000
     14     -16.5329      1.00000
     15     -13.9879      1.00000
     16     -13.9879      1.00000
     17     -13.5023      1.00000
     18     -13.5023      1.00000
     19      -0.6420      1.00000
     20      -0.6419      1.00000
     21       0.1937      1.00000
     22       0.1937      1.00000
     23       0.9346      1.00000
     24       0.9346      1.00000
     25       1.1225      1.00000
     26       1.1226      1.00000
     27       1.1803      1.00000
     28       1.1803      1.00000
     29       1.9985      1.00000
     30       1.9986      1.00000
     31       4.7110      1.00000
     32       4.7110      1.00000
     33       7.2685      0.00000
     34       7.2686      0.00000
     35       7.9720      0.00000
     36       7.9720      0.00000
     37       8.3575      0.00000
     38       8.3576      0.00000
     39       8.4226      0.00000
     40       8.4227      0.00000
     41       9.1841      0.00000
     42       9.1841      0.00000
     43      10.9995      0.00000
     44      10.9996      0.00000
     45      11.2759      0.00000
     46      11.2760      0.00000
     47      11.9391      0.00000
     48      11.9393      0.00000

[...]

 soft charge-density along one line, spin component           2
         0         1         2         3         4         5         6         7         8         9
 total charge-density along one line

------------------------ aborting loop because EDIFF is reached ----------------------------------------

[...]

  FORCE on cell =-STRESS in cart. coord.  units (eV):
  Direction    XX          YY          ZZ          XY          YZ          ZX
  Alpha Z   368.56944   368.56944   368.56944
  Ewald   -1601.69665 -1601.69768 -2717.49267     0.01209    -0.03834     0.00010
  Hartree  1029.64019  1029.64034   303.27026     0.00620    -0.02112    -0.00048
  E(xc)    -423.16499  -423.16501  -423.46853     0.00004    -0.00007     0.00001
  Local    -578.67841  -578.67831  1220.44745    -0.01826     0.05912    -0.00062
  n-local  -216.70373  -216.70387  -218.90246    -0.00003     0.00034    -0.00019
  augment   378.79300   378.79334   396.74693     0.00008     0.00058     0.00049
  Kinetic  1043.10091  1043.10103  1070.79485     0.00023    -0.00120     0.00093
  Fock        0.00000     0.00000     0.00000     0.00000     0.00000     0.00000
  Total      -0.14024    -0.14072    -0.03474     0.00034    -0.00070     0.00023
  in kB      -2.18834    -2.19586    -0.54210     0.00528    -0.01088     0.00364

 VOLUME and BASIS-vectors are now :
  energy-cutoff  :      520.00
  volume of cell :      102.68
      direct lattice vectors                 reciprocal lattice vectors
     5.517907429 -0.000010094 -0.000042156     0.181228122  0.000000330  0.000000775
    -0.000010051  5.517919959  0.000002187     0.000000332  0.181227710  0.000000137
    -0.000014417 -0.000002544  3.372233785     0.000002266 -0.000000118  0.296539346

  length of vectors
     5.517907430  5.517919959  3.372233785     0.181228122  0.181227710  0.296539346

 FORCES acting on ions
    electron-ion (+dipol)            ewald-force                    non-local-force                 convergence-correction
   -.131E-02 -.101E-01 -.437E+02   0.917E-03 0.986E-02 0.431E+02   0.928E-05 0.117E-03 0.509E+00   0.163E-05 0.258E-04 -.756E-04
   0.384E-02 -.111E-01 0.436E+02   -.408E-02 0.110E-01 -.431E+02   -.248E-03 0.559E-03 -.508E+00   -.653E-05 -.109E-04 0.878E-04
   0.197E-01 0.223E-01 0.424E-02   -.182E-01 -.182E-01 -.397E-02   -.153E-02 -.471E-02 -.218E-04   -.134E-04 -.613E-04 -.704E-05
   0.183E-01 -.316E-02 0.135E-02   -.170E-01 -.614E-03 -.142E-02   -.130E-02 0.426E-02 0.112E-03   -.165E-04 0.512E-04 -.406E-05
   -.120E+02 -.120E+02 -.440E+02   0.127E+02 0.127E+02 0.454E+02   -.626E+00 -.626E+00 -.141E+01   -.114E-04 -.107E-04 0.174E-03
   0.120E+02 -.120E+02 0.440E+02   -.126E+02 0.127E+02 -.454E+02   0.626E+00 -.626E+00 0.141E+01   0.121E-04 -.978E-05 -.177E-03
   0.120E+02 0.120E+02 -.440E+02   -.127E+02 -.127E+02 0.454E+02   0.625E+00 0.625E+00 -.141E+01   0.700E-05 0.602E-05 0.176E-03
   -.120E+02 0.120E+02 0.440E+02   0.127E+02 -.126E+02 -.454E+02   -.627E+00 0.627E+00 0.141E+01   -.116E-04 0.134E-04 -.171E-03
   0.522E-02 -.174E-04 -.233E-03   0.142E-13 -.142E-13 0.142E-13   -.541E-02 0.158E-03 0.434E-03   -.387E-04 0.383E-05 0.352E-05

 POSITION                                       TOTAL-FORCE (eV/Angst)
      2.75898      0.00002      1.42694        -0.000355     -0.000126     -0.005992
      0.00001      2.75890      1.94526        -0.000465      0.000496      0.006104
      2.75894      2.75899     -0.00003         0.000008     -0.000677      0.000206
     -0.00001     -0.00002     -0.00000        -0.000002      0.000490      0.000007
      4.28317      1.52426      0.36880         0.008509      0.007879     -0.015000
      3.99362      4.28318      3.00330        -0.007862      0.008493      0.014997
      1.23471      3.99371      0.36894        -0.008281     -0.008844     -0.015230
      1.52421      1.23468      3.00338         0.008447     -0.007710      0.014909
    total drift:                               -0.000225      0.000144      0.000204

  FREE ENERGIE OF THE ION-ELECTRON SYSTEM (eV)
  free  energy   TOTEN  =       -96.39588384 eV

  energy  without entropy=      -96.39588384  energy(sigma->0) =      -96.39588384

 d Force =-0.3756744E-04[-0.391E-04,-0.361E-04]  d Energy = 0.5421312E-03-0.580E-03
 d Force = 0.6717669E-01[ 0.672E-01, 0.672E-01]  d Ewald  = 0.3933467E+01-0.387E+01

 reached required accuracy - stopping structural energy minimisation

 total charge

[...]

 magnetization (x)

# of ion       s       p       d       tot
    1       -0.000  -0.001   0.001  -0.001
    2       -0.000  -0.001   0.001  -0.001
    3        0.016   0.031   3.661   3.708
    4        0.016   0.031   3.661   3.708
    5        0.010   0.098   0.000   0.108
    6        0.010   0.098   0.000   0.108
    7        0.010   0.098   0.000   0.108
    8        0.010   0.098   0.000   0.108
tot          0.070   0.453   7.324   7.846