 vasp.6.1.2 22Jul20 (build Feb 09 2022 12:23:39) complex

 executed on             LinuxIFC date 2022.04.06  14:57:26

 INCAR:
 POTCAR:    PAW_PBE Ca_sv 06Sep2000
 POTCAR:    PAW_PBE V_pv 07Sep2000
 POTCAR:    PAW_PBE S 06Sep2000
 POTCAR:    PAW_PBE O 08Apr2002
 POTCAR:    PAW_PBE Ca_sv 06Sep2000
   VRHFIN =Ca: 3s3p4s

   TITEL  = PAW_PBE Ca_sv 06Sep2000
   POMASS =   40.078; ZVAL   =   10.000    mass and valenz
   ENMAX  =  266.622; ENMIN  =  199.967 eV

   TITEL  = PAW_PBE V_pv 07Sep2000
   POMASS =   50.941; ZVAL   =   11.000    mass and valenz
   ENMAX  =  263.673; ENMIN  =  197.755 eV

   TITEL  = PAW_PBE S 06Sep2000
   POMASS =   32.066; ZVAL   =    6.000    mass and valenz
   ENMAX  =  258.689; ENMIN  =  194.016 eV

   TITEL  = PAW_PBE O 08Apr2002
   POMASS =   16.000; ZVAL   =    6.000    mass and valenz
   ENMAX  =  400.000; ENMIN  =  300.000 eV

 Optimization of the real space projectors (new method)

 maximal supplied QI-value         = 16.25
 optimisation between [QCUT,QGAM] = [ 11.54, 23.24] = [ 37.28,151.24] Ry
 Optimized for a Real-space Cutoff    1.58 Angstroem

   l    n(q)    QCUT    max X(q) W(low)/X(q) W(high)/X(q)  e(spline)
   0     11    11.539    11.817    0.25E-04    0.22E-05    0.26E-07
   0     11    11.539     8.461    0.39E-04    0.49E-05    0.55E-07
   1     11    11.539     3.957    0.21E-05    0.44E-05    0.32E-07
   1     11    11.539     4.314    0.56E-04    0.44E-04    0.19E-06
   2     10    11.539    14.565    0.25E-03    0.21E-04    0.75E-06
   2     10    11.539    14.552    0.23E-03    0.22E-04    0.72E-06
 Optimization of the real space projectors (new method)

[...]

   l    n(q)    QCUT    max X(q) W(low)/X(q) W(high)/X(q)  e(spline)
   0      8    11.508   187.594    0.96E-04    0.18E-03    0.54E-07
   0      8    11.508   164.243    0.96E-04    0.18E-03    0.54E-07
   1      8    11.508    67.533    0.18E-03    0.65E-04    0.94E-07
   1      8    11.508    50.729    0.18E-03    0.63E-04    0.92E-07
 Optimization of the real space projectors (new method)

 maximal supplied QI-value         = 24.76
 optimisation between [QCUT,QGAM] = [ 11.64, 23.27] = [ 37.91,151.63] Ry
 Optimized for a Real-space Cutoff    1.14 Angstroem

   l    n(q)    QCUT    max X(q) W(low)/X(q) W(high)/X(q)  e(spline)
   0      8    11.635    20.381    0.10E-03    0.33E-03    0.24E-06
   0      8    11.635    15.268    0.11E-03    0.35E-03    0.26E-06
   1      7    11.635     5.964    0.24E-03    0.31E-03    0.30E-06
   1      7    11.635     5.382    0.22E-03    0.25E-03    0.26E-06
  PAW_PBE Ca_sv 06Sep2000               :
  PAW_PBE V_pv 07Sep2000                :
  PAW_PBE S 06Sep2000                   :
  PAW_PBE O 08Apr2002                   :

 POSCAR: Ca2 V4 S6 O24
  positions in direct lattice
  velocities in cartesian coordinates

 METAGGA = SCAN     LMAXTAU =  6    LMIXTAU =  F

 ion  position               nearest neighbor table
   1  0.498  0.498  0.498-  15 2.38  17 2.38  13 2.38  22 2.38  24 2.38  20 2.38
   2  0.998  0.998  0.998-  14 2.38  16 2.38  18 2.38  23 2.38  21 2.38  19 2.39
   3  0.644  0.645  0.645-  26 2.09  30 2.09  28 2.09  17 2.14  13 2.14  15 2.14
   4  0.145  0.144  0.145-  29 2.09  27 2.09  25 2.09  16 2.14  18 2.14  14 2.14
   5  0.851  0.851  0.851-  34 2.09  36 2.09  32 2.09  21 2.14  19 2.14  23 2.14
   6  0.351  0.351  0.351-  35 2.09  31 2.09  33 2.09  20 2.14  22 2.14  24 2.14
   7  0.949  0.248  0.546-  31 1.45  25 1.45  15 1.49  23 1.49
   8  0.449  0.046  0.748-  32 1.45  26 1.45  22 1.49  18 1.49
   9  0.546  0.949  0.248-  33 1.45  27 1.45  19 1.49  17 1.49
  10  0.748  0.449  0.046-  34 1.45  28 1.45  14 1.49  24 1.49
  11  0.248  0.546  0.949-  35 1.45  29 1.45  13 1.49  21 1.49
  12  0.046  0.748  0.449-  36 1.45  30 1.45  20 1.49  16 1.49
  13  0.404  0.566  0.767-  11 1.49   3 2.14   1 2.38
  14  0.904  0.267  0.065-  10 1.49   4 2.14   2 2.38
  15  0.767  0.404  0.565-   7 1.49   3 2.14   1 2.38
  16  0.065  0.904  0.267-  12 1.49   4 2.14   2 2.38
  17  0.566  0.767  0.404-   9 1.49   3 2.14   1 2.38
  18  0.267  0.065  0.904-   8 1.49   4 2.14   2 2.38
  19  0.728  0.930  0.091-   9 1.49   5 2.14   2 2.39
  20  0.228  0.591  0.430-  12 1.49   6 2.14   1 2.38
  21  0.091  0.728  0.930-  11 1.49   5 2.14   2 2.38
  22  0.430  0.228  0.591-   8 1.49   6 2.14   1 2.38
  23  0.930  0.091  0.728-   7 1.49   5 2.14   2 2.38
  24  0.591  0.430  0.228-  10 1.49   6 2.14   1 2.38
  25  0.984  0.193  0.400-   7 1.45   4 2.09
  26  0.484  0.900  0.693-   8 1.45   3 2.09
  27  0.400  0.983  0.193-   9 1.45   4 2.09
  28  0.693  0.484  0.900-  10 1.45   3 2.09
  29  0.193  0.400  0.984-  11 1.45   4 2.09
  30  0.900  0.693  0.484-  12 1.45   3 2.09
  31  0.095  0.303  0.510-   7 1.45   6 2.09
  32  0.595  0.011  0.802-   8 1.45   5 2.09
  33  0.510  0.095  0.303-   9 1.45   6 2.09
  34  0.803  0.596  0.010-  10 1.45   5 2.09
  35  0.303  0.511  0.095-  11 1.45   6 2.09
  36  0.011  0.803  0.595-  12 1.45   5 2.09

IMPORTANT INFORMATION: All symmetrisations will be switched off!
NOSYMM: (Re-)initialisation of all symmetry stuff for point group C_1.

                                     Primitive cell

  volume of cell :     481.1270

  direct lattice vectors                    reciprocal lattice vectors
     7.662240225  0.092113576  4.491070898     0.131985695 -0.047131842 -0.001550770
     2.623141105  7.197875346  4.493236953    -0.000821149  0.140148991 -0.001473542
     0.137982244  0.094185357  8.881104001    -0.066328183 -0.047071871  0.114128333

  length of vectors
     8.881898895  8.881410759  8.882675174     0.140157194  0.140159142  0.140144444

  position of ions in fractional coordinates (direct lattice)
     0.497689175  0.497683856  0.497745863
     0.997674870  0.997710906  0.997737797
     0.644488735  0.644523121  0.644584653
     0.144598501  0.144412789  0.144581302
     0.850874255  0.850866513  0.850746700
     0.350807622  0.350941829  0.350742893
     0.949446455  0.247586860  0.545618078
     0.449389759  0.045683583  0.747536137
     0.545636898  0.949320269  0.247597430
     0.747582800  0.449430588  0.045573169
     0.247576682  0.545651619  0.949487737
     0.045621143  0.747597217  0.449433957
     0.403891262  0.565512709  0.766682790
     0.904011632  0.266718308  0.065347360
     0.766624216  0.403877710  0.565478273
     0.065379210  0.903991861  0.266678930
     0.565515564  0.766603730  0.404022434
     0.266706464  0.065364674  0.904034790
     0.728311958  0.930048924  0.091069162
     0.228332603  0.591093186  0.430094947
     0.090946089  0.728265888  0.930259085
     0.429928347  0.228399155  0.591087723
     0.930315064  0.091055696  0.728308218
     0.591133183  0.430146121  0.228321570
     0.983921563  0.192505784  0.399842448
     0.483876515  0.899775708  0.692628976
     0.399801103  0.983486549  0.192761202
     0.692544076  0.483763252  0.899845631
     0.192754272  0.399635224  0.984078180
     0.899722126  0.692655186  0.483989250
     0.095350870  0.302878826  0.510403721
     0.595444582  0.010778437  0.802449974
     0.510445548  0.095442268  0.302561015
     0.802678748  0.595505389  0.010342058
     0.302701098  0.510787225  0.095358594
     0.010677014  0.802699039  0.595367954

  ion indices of the primitive-cell ions
   primitive index   ion index
                 1           1
                 2           2
                 3           3
                 4           4
                 5           5
                 6           6
                 7           7
                 8           8
                 9           9
                10          10
                11          11
                12          12
                13          13
                14          14
                15          15
                16          16
                17          17
                18          18
                19          19
                20          20
                21          21
                22          22
                23          23
                24          24
                25          25
                26          26
                27          27
                28          28
                29          29
                30          30
                31          31
                32          32
                33          33
                34          34
                35          35
                36          36

Automatic generation of k-mesh.
 generate k-points for:    2    2    2
Space group operators:
 irot       det(A)        alpha          n_x          n_y          n_z        tau_x        tau_y        tau_z
    1     1.000000     0.000000     1.000000     0.000000     0.000000     0.000000     0.000000     0.000000

 Subroutine IBZKPT returns following result:

 Found      8 irreducible k-points:

 Following reciprocal coordinates:
            Coordinates               Weight
  0.000000  0.000000  0.000000      1.000000
  0.500000  0.000000 -0.000000      1.000000
 -0.000000  0.500000  0.000000      1.000000
  0.500000  0.500000 -0.000000      1.000000
  0.000000 -0.000000  0.500000      1.000000
  0.500000  0.000000  0.500000      1.000000
  0.000000  0.500000  0.500000      1.000000
  0.500000  0.500000  0.500000      1.000000

 Following cartesian coordinates:
            Coordinates               Weight
  0.000000  0.000000  0.000000      1.000000
  0.065993 -0.023566 -0.000775      1.000000
 -0.000411  0.070074 -0.000737      1.000000
  0.065582  0.046509 -0.001512      1.000000
 -0.033164 -0.023536  0.057064      1.000000
  0.032829 -0.047102  0.056289      1.000000
 -0.033575  0.046539  0.056327      1.000000
  0.032418  0.022973  0.055552      1.000000

 SYSTEM =  unknown system
 POSCAR =  Ca2 V4 S6 O24

 Startparameter for this run:
   NWRITE =      2    write-flag & timer
   PREC   = accura    normal or accurate (medium, high low for compatibility)
   ISTART =      0    job   : 0-new  1-cont  2-samecut
   ICHARG =      1    charge: 1-file 2-atom 10-const
   ISPIN  =      2    spin polarized calculation?
   LNONCOLLINEAR =      F non collinear calculations
   LSORBIT =      F    spin-orbit coupling
   INIWAV =      1    electr: 0-lowe 1-rand  2-diag
   LASPH  =      T    aspherical Exc in radial PAW
   METAGGA=      F    non-selfconsistent MetaGGA calc.

 Electronic Relaxation 1
   ENCUT  =  520.0 eV  38.22 Ry    6.18 a.u.  16.51 16.51 16.52*2*pi/ulx,y,z
   ENINI  =  520.0     initial cutoff
   ENAUG  =  605.4 eV  augmentation charge cutoff
   NELM   =    150;   NELMIN=  6; NELMDL= -5     # of ELM steps
   EDIFF  = 0.1E-04   stopping-criterion for ELM
   LREAL  =      T    real-space projection
   NLSPLINE    = F    spline interpolate recip. space projectors
   LCOMPAT=      F    compatible to vasp.4.4
   GGA_COMPAT  = T    GGA compatible to vasp.4.4-vasp.4.6
   LMAXPAW     = -100 max onsite density
   LMAXMIX     =    2 max onsite mixed and CHGCAR
   VOSKOWN=      0    Vosko Wilk Nusair interpolation
   ROPT   =   -0.00025  -0.00025  -0.00025  -0.00025
 Ionic relaxation
   EDIFFG = -.3E-01   stopping-criterion for IOM
   NSW    =    300    number of steps for IOM
[...]
     31     -19.8084      1.00000
     32     -19.7979      1.00000
     33     -19.7978      1.00000
     34     -19.7321      1.00000
     35     -19.6953      1.00000
     36     -19.6950      1.00000
     37     -19.6418      1.00000
     38     -19.6417      1.00000
     39     -19.3310      1.00000
     40     -19.3308      1.00000
     41     -19.2527      1.00000
     42     -19.1801      1.00000
     43     -19.1799      1.00000
     44     -19.0137      1.00000
     45      -9.7037      1.00000
     46      -8.9276      1.00000
     47      -8.7403      1.00000
     48      -8.7400      1.00000
     49      -8.6644      1.00000
     50      -8.6640      1.00000
     51      -7.0931      1.00000
     52      -7.0592      1.00000
     53      -6.5538      1.00000
     54      -6.5016      1.00000
     55      -6.3592      1.00000
     56      -6.3421      1.00000
     57      -6.3415      1.00000
     58      -6.2947      1.00000
     59      -6.2941      1.00000
     60      -6.2378      1.00000
[...]
    162      10.5081      0.00000
    163      10.5670      0.00000
    164      10.7449      0.00000
    165      10.7473      0.00000
    166      10.9155      0.00000
    167      10.9196      0.00000
    168      11.1830      0.00000
    169      11.2622      0.00000
    170      11.2909      0.00000
    171      11.3574      0.00000
    172      11.3681      0.00000
    173      11.5352      0.00000
    174      11.6992      0.00000
    175      11.7840      0.00000
    176      11.8528      0.00000

[...]

 spin component 2

[...]

 k-point     8 :       0.5000    0.5000    0.5000
  band No.  band energies     occupation
      1     -39.5283      1.00000
      2     -39.5283      1.00000
      3     -32.9300      1.00000
      4     -32.9290      1.00000
      5     -32.9279      1.00000
      6     -32.9268      1.00000
      7     -32.8601      1.00000
      8     -32.8593      1.00000
      9     -32.8571      1.00000
     10     -32.8570      1.00000
     11     -32.8557      1.00000
     12     -32.8556      1.00000
     13     -32.8532      1.00000
     14     -32.8513      1.00000
     15     -24.0999      1.00000
     16     -24.0997      1.00000
     17     -24.0544      1.00000
     18     -24.0542      1.00000
     19     -24.0532      1.00000
     20     -24.0531      1.00000
     21     -20.2935      1.00000
     22     -20.2933      1.00000
     23     -20.0650      1.00000
     24     -20.0645      1.00000
     25     -20.0642      1.00000
     26     -20.0638      1.00000
     27     -19.9300      1.00000
     28     -19.9282      1.00000
     29     -19.8134      1.00000
     30     -19.8124      1.00000
     31     -19.8117      1.00000
     32     -19.8109      1.00000
     33     -19.7774      1.00000
     34     -19.7758      1.00000
     35     -19.6490      1.00000
     36     -19.6486      1.00000
     37     -19.6484      1.00000
     38     -19.6478      1.00000
     39     -19.2306      1.00000
     40     -19.2303      1.00000
     41     -19.2302      1.00000
     42     -19.2299      1.00000
     43     -19.0702      1.00000
     44     -19.0701      1.00000
     45      -9.2628      1.00000
     46      -9.2623      1.00000
     47      -8.6630      1.00000
     48      -8.6624      1.00000
     49      -8.6616      1.00000
     50      -8.6613      1.00000
     51      -6.9344      1.00000
     52      -6.9342      1.00000
     53      -6.5252      1.00000
     54      -6.5246      1.00000
     55      -6.2254      1.00000
     56      -6.2248      1.00000
     57      -6.2239      1.00000
     58      -6.2236      1.00000
     59      -6.1441      1.00000
     60      -6.1438      1.00000
[...]
    162      10.6201      0.00000
    163      10.8960      0.00000
    164      10.8981      0.00000
    165      10.9005      0.00000
    166      10.9024      0.00000
    167      11.5205      0.00000
    168      11.5315      0.00000
    169      11.6733      0.00000
    170      11.6786      0.00000
    171      11.6840      0.00000
    172      11.7259      0.00000
    173      12.1106      0.00000
    174      12.1424      0.00000
    175      12.2510      0.00000
    176      12.3023      0.00000

 soft charge-density along one line, spin component           1
         0         1         2         3         4         5         6         7         8         9
 total charge-density along one line

 soft charge-density along one line, spin component           2
         0         1         2         3         4         5         6         7         8         9
 total charge-density along one line

------------------------ aborting loop because EDIFF is reached ----------------------------------------

 total charge

# of ion       s       p       d       tot
    1        2.016   5.865   0.185   8.065
    2        2.016   5.865   0.185   8.065
    3        0.147   6.122   3.063   9.333
    4        0.147   6.122   3.063   9.333
    5        0.147   6.122   3.063   9.332
    6        0.147   6.122   3.063   9.332
    7        1.220   2.300   0.000   3.519
    8        1.220   2.299   0.000   3.519
    9        1.220   2.300   0.000   3.519
   10        1.220   2.300   0.000   3.519
   11        1.220   2.300   0.000   3.519
   12        1.220   2.299   0.000   3.519
   13        1.581   3.652   0.000   5.233
   14        1.581   3.652   0.000   5.233
   15        1.581   3.652   0.000   5.233
   16        1.581   3.652   0.000   5.233
   17        1.581   3.652   0.000   5.233
   18        1.581   3.652   0.000   5.233
   19        1.581   3.652   0.000   5.233
   20        1.581   3.652   0.000   5.233
   21        1.581   3.652   0.000   5.233
   22        1.581   3.652   0.000   5.233
   23        1.581   3.652   0.000   5.233
   24        1.581   3.652   0.000   5.233
   25        1.585   3.656   0.000   5.241
   26        1.585   3.656   0.000   5.241
   27        1.585   3.655   0.000   5.241
   28        1.585   3.656   0.000   5.241
   29        1.585   3.656   0.000   5.241
   30        1.585   3.656   0.000   5.241
   31        1.585   3.656   0.000   5.241
   32        1.585   3.656   0.000   5.241
   33        1.585   3.656   0.000   5.241
   34        1.585   3.656   0.000   5.241
   35        1.585   3.656   0.000   5.241
   36        1.585   3.656   0.000   5.241
tot         49.932 137.709  12.622 200.263

 magnetization (x)

[...]

  FORCE on cell =-STRESS in cart. coord.  units (eV):
  Direction    XX          YY          ZZ          XY          YZ          ZX
  Alpha Z   741.17287   741.17287   741.17287
  Ewald   -4153.33755 -4315.14445 -3521.24217   232.37026   396.24571   559.16206
  Hartree  2220.97422  2134.11029  2560.22243   124.72016   212.46972   300.02737
  E(xc)   -1264.10709 -1263.99107 -1264.55634    -0.16505    -0.28352    -0.39890
  Local   -1841.87705 -1598.94133 -2790.84928  -348.86753  -594.67607  -839.42606
  n-local  -587.04994  -588.15179  -582.82773     1.56868     2.63878     3.73838
  augment   296.84460   297.15769   295.64897    -0.44383    -0.72191    -1.02152
  Kinetic  4587.26060  4593.72400  4562.10267    -9.23947   -15.79770   -22.24759
  Fock        0.00000     0.00000     0.00000     0.00000     0.00000     0.00000
  Total      -0.11933    -0.06379    -0.32858    -0.05678    -0.12499    -0.16624
  in kB      -0.39738    -0.21243    -1.09419    -0.18908    -0.41621    -0.55360

 VOLUME and BASIS-vectors are now :
  energy-cutoff  :      520.00
  volume of cell :      481.13
      direct lattice vectors                 reciprocal lattice vectors
     7.662240225  0.092113576  4.491070898     0.131985695 -0.047131842 -0.001550770
     2.623141105  7.197875346  4.493236953    -0.000821149  0.140148991 -0.001473542
     0.137982244  0.094185357  8.881104001    -0.066328183 -0.047071871  0.114128333

  length of vectors
     8.881898895  8.881410759  8.882675174     0.140157194  0.140159142  0.140144444

 FORCES acting on ions:
    Electron-Ion                     Ewald-Force                    Non-Local-Force
   0.610E+00 0.619E+00 0.103E+01   -.593E+00 -.611E+00 -.101E+01   -.165E-01 -.651E-02 -.185E-01
   0.775E+00 0.338E+00 0.103E+01   -.761E+00 -.325E+00 -.102E+01   -.128E-01 -.120E-01 -.163E-01
   -.327E+02 -.231E+02 -.559E+02   0.332E+02 0.233E+02 0.567E+02   -.501E+00 -.204E+00 -.764E+00
   -.327E+02 -.235E+02 -.559E+02   0.331E+02 0.239E+02 0.567E+02   -.379E+00 -.416E+00 -.765E+00
   0.325E+02 0.228E+02 0.555E+02   -.331E+02 -.231E+02 -.564E+02   0.581E+00 0.261E+00 0.888E+00
   0.321E+02 0.233E+02 0.555E+02   -.326E+02 -.238E+02 -.564E+02   0.463E+00 0.470E+00 0.882E+00
   -.534E+01 0.109E+00 0.314E+01   0.839E+01 -.942E-01 -.491E+01   -.312E+01 -.157E-01 0.181E+01
   -.370E+01 0.502E+01 0.133E+00   0.576E+01 -.788E+01 -.106E+00   -.209E+01 0.293E+01 -.104E-01
   0.349E+01 -.523E+01 0.841E-01   -.551E+01 0.811E+01 -.615E-01   0.207E+01 -.295E+01 -.268E-01
   -.174E+01 -.509E+01 0.302E+01   0.276E+01 0.797E+01 -.479E+01   -.104E+01 -.293E+01 0.182E+01
   0.197E+01 0.511E+01 -.307E+01   -.296E+01 -.798E+01 0.486E+01   0.102E+01 0.294E+01 -.182E+01
   0.548E+01 0.116E+00 -.316E+01   -.853E+01 -.107E+00 0.496E+01   0.312E+01 -.274E-02 -.182E+01
   -.255E+02 0.949E+01 0.856E+02   0.568E+02 -.625E+01 -.109E+03   -.313E+02 -.326E+01 0.236E+02
   -.165E+01 0.789E+02 0.424E+02   0.196E+02 -.114E+03 -.424E+02   -.179E+02 0.350E+02 -.720E-01
   0.742E+02 -.274E+02 0.425E+02   -.101E+03 0.559E+02 -.424E+02   0.271E+02 -.284E+02 -.813E-01
   0.882E+00 -.275E+02 0.855E+02   0.125E+02 0.559E+02 -.109E+03   -.134E+02 -.284E+02 0.235E+02
   0.375E+02 0.789E+02 0.196E+02   -.462E+02 -.114E+03 -.394E+01   0.876E+01 0.349E+02 -.156E+02
   0.869E+02 0.957E+01 0.197E+02   -.123E+03 -.635E+01 -.400E+01   0.359E+02 -.324E+01 -.157E+02
   -.873E+02 -.105E+02 -.198E+02   0.123E+03 0.744E+01 0.425E+01   -.359E+02 0.311E+01 0.156E+02
   -.739E+02 0.278E+02 -.436E+02   0.101E+03 -.562E+02 0.437E+02   -.270E+02 0.285E+02 -.103E+00
   0.202E+01 -.787E+02 -.436E+02   -.200E+02 0.114E+03 0.437E+02   0.180E+02 -.349E+02 -.120E+00
   -.385E+02 -.789E+02 -.198E+02   0.474E+02 0.114E+03 0.421E+01   -.889E+01 -.349E+02 0.156E+02
   -.171E+01 0.278E+02 -.860E+02   -.115E+02 -.563E+02 0.110E+03   0.132E+02 0.285E+02 -.236E+02
   0.255E+02 -.104E+02 -.860E+02   -.567E+02 0.729E+01 0.110E+03   0.312E+02 0.309E+01 -.236E+02
   0.501E+02 0.209E+02 0.105E+03   -.523E+02 -.349E+02 -.148E+03   0.224E+01 0.140E+02 0.430E+02
   0.621E+02 0.555E+02 0.832E+02   -.698E+02 -.852E+02 -.116E+03   0.771E+01 0.297E+02 0.333E+02
   0.731E+02 0.405E+02 0.832E+02   -.104E+03 -.381E+02 -.116E+03   0.305E+02 -.245E+01 0.333E+02
   0.365E+02 0.404E+02 0.105E+03   -.504E+02 -.379E+02 -.148E+03   0.140E+02 -.251E+01 0.430E+02
   0.418E+02 0.558E+02 0.949E+02   -.670E+02 -.855E+02 -.118E+03   0.252E+02 0.297E+02 0.231E+02
   0.666E+02 0.209E+02 0.949E+02   -.103E+03 -.349E+02 -.118E+03   0.364E+02 0.140E+02 0.231E+02
   -.670E+02 -.214E+02 -.940E+02   0.103E+03 0.355E+02 0.117E+03   -.364E+02 -.141E+02 -.229E+02
   -.735E+02 -.393E+02 -.830E+02   0.104E+03 0.366E+02 0.116E+03   -.306E+02 0.275E+01 -.333E+02
   -.611E+02 -.564E+02 -.831E+02   0.685E+02 0.862E+02 0.116E+03   -.745E+01 -.298E+02 -.333E+02
   -.422E+02 -.561E+02 -.939E+02   0.675E+02 0.858E+02 0.117E+03   -.253E+02 -.297E+02 -.229E+02
   -.363E+02 -.394E+02 -.105E+03   0.503E+02 0.366E+02 0.148E+03   -.140E+02 0.272E+01 -.430E+02
   -.491E+02 -.211E+02 -.105E+03   0.511E+02 0.351E+02 0.148E+03   -.204E+01 -.141E+02 -.430E+02
   0.672E-01 0.216E-01 0.116E+00   -.355E-13 -.114E-12 0.142E-12   0.318E-02 0.284E-01 0.103E-02

 POSITION                                       TOTAL-FORCE (eV/Angst)
      5.18759      3.67499      8.89190        -0.000697     -0.000396     -0.001448
     10.39923      7.36727     17.82459        -0.000886     -0.000323     -0.001377
      6.71784      4.75927     11.51506         0.000928     -0.002694     -0.000086
      1.50671      1.06640      2.58232         0.000177      0.001267      0.001011
      8.86893      6.28294     15.20005        -0.004693     -0.000332     -0.005066
      3.65694      2.59138      6.26735        -0.001581     -0.004141     -0.003863
      7.99963      1.92095     10.22219        -0.002916     -0.001823     -0.002672
      3.66631      0.44063      8.86245         0.007808      0.006492      0.013860
      6.70517      6.90667      8.91495        -0.002962     -0.004446     -0.006522
      6.91337      3.30810      5.78159         0.004678      0.000596      0.005865
      3.45933      4.03977     11.99613         0.000601      0.003109      0.003961
      2.37263      5.42764      7.55549         0.009314      0.005676      0.010658
      4.68392      4.17990     11.16388         0.013165     -0.010333      0.008793
      7.63541      2.00923      5.83877         0.019873      0.002376     -0.001628
      7.01151      3.03094     10.27975         0.009990      0.016922     -0.000480
      2.90905      6.53796      6.72388        -0.007647      0.015728      0.008860
      6.39977      5.60806      9.57247        -0.009537      0.003256      0.019568
      2.33977      0.58020      9.52032        -0.000393     -0.012463      0.015827
      8.03272      6.77004      8.25863        -0.000464      0.012164     -0.013853
      3.35941      4.31616      7.50110        -0.010627     -0.016442     -0.000419
      2.73555      5.33796     11.94244        -0.017699     -0.004949      0.001631
      3.97490      1.73926      8.20660         0.008402     -0.004956     -0.017353
      7.46764      0.80970     11.05543         0.007260     -0.014933     -0.008501
      5.68924      3.17209      6.61532        -0.013764      0.011235     -0.009024
      8.09918      1.51392      8.83488         0.015273      0.015404      0.008865
      6.16339      6.58628     12.36734         0.008454     -0.009319      0.014948
      5.66979      7.13400      7.92651         0.000417      0.011965      0.021646
      6.69958      3.63061     13.27555         0.017600      0.010292      0.006138
      2.66101      2.98697     11.40103         0.011773     -0.006535      0.016519
      8.77760      5.11411     11.45134        -0.004827      0.012024      0.014285
      1.59552      2.23694      6.32208         0.008651     -0.009033     -0.018605
      4.70144      0.20801      9.84926        -0.002021     -0.016147     -0.024258
      4.20326      0.76250      5.40837        -0.013236      0.011163     -0.016877
      7.71384      4.36129      6.37248        -0.011058      0.007740     -0.021967
      3.67239      3.71345      4.50143        -0.018169     -0.015052     -0.007157
      2.26955      5.83479      8.94219        -0.021187     -0.013091     -0.011280
    total drift:                                0.070360      0.050004      0.116762

  FREE ENERGIE OF THE ION-ELECTRON SYSTEM (eV)
  free  energy   TOTEN  =      -369.24370005 eV

  energy  without entropy=     -369.24370005  energy(sigma->0) =     -369.24370005

 reached required accuracy - stopping structural energy minimisation

 total charge

[...]

 magnetization (x)

# of ion       s       p       d       tot
    1        0.000   0.000   0.009   0.010
    2        0.000   0.000   0.009   0.010
    3        0.012   0.012   2.639   2.663
    4        0.012   0.012   2.639   2.663
    5        0.012   0.012   2.639   2.663
    6        0.012   0.012   2.639   2.663
    7        0.004   0.011   0.000   0.015
    8        0.004   0.011   0.000   0.015
    9        0.004   0.011   0.000   0.015
   10        0.004   0.011   0.000   0.015
   11        0.004   0.011   0.000   0.015
   12        0.004   0.011   0.000   0.015
   13        0.000  -0.001   0.000  -0.000
   14        0.000  -0.001   0.000  -0.000
   15        0.000  -0.001   0.000  -0.000
   16        0.000  -0.001   0.000  -0.001
   17        0.000  -0.001   0.000  -0.000
   18        0.000  -0.001   0.000  -0.000
   19        0.000  -0.000   0.000  -0.000
   20        0.000  -0.001   0.000  -0.001
   21        0.000  -0.001   0.000  -0.000
   22        0.000  -0.001   0.000  -0.000
   23        0.000  -0.001   0.000  -0.000
   24        0.000  -0.001   0.000  -0.000
   25       -0.001   0.005   0.000   0.005
   26       -0.001   0.005   0.000   0.005
   27       -0.001   0.005   0.000   0.005
   28       -0.001   0.005   0.000   0.005
   29       -0.001   0.005   0.000   0.005
   30       -0.001   0.005   0.000   0.005
   31       -0.001   0.005   0.000   0.005
   32       -0.001   0.005   0.000   0.005
   33       -0.001   0.005   0.000   0.005
   34       -0.001   0.005   0.000   0.004
   35       -0.001   0.005   0.000   0.005
   36       -0.001   0.005   0.000   0.005
tot          0.068   0.168  10.574  10.810