 vasp.6.1.2 22Jul20 (build Dec 05 2020 14:50:36) complex

 executed on         CrayXC-Intel date 2021.06.18  16:26:43

 INCAR:
 POTCAR:    PAW_PBE Ca_sv 06Sep2000
 POTCAR:    PAW_PBE V_pv 07Sep2000
 POTCAR:    PAW_PBE Si 05Jan2001
 POTCAR:    PAW_PBE O 08Apr2002
 POTCAR:    PAW_PBE Ca_sv 06Sep2000
   VRHFIN =Ca: 3s3p4s

   TITEL  = PAW_PBE Ca_sv 06Sep2000
   POMASS =   40.078; ZVAL   =   10.000    mass and valenz
   ENMAX  =  266.622; ENMIN  =  199.967 eV

 POTCAR:    PAW_PBE V_pv 07Sep2000
   VRHFIN =V: p6 d4 s1

   TITEL  = PAW_PBE V_pv 07Sep2000
   POMASS =   50.941; ZVAL   =   11.000    mass and valenz
   ENMAX  =  263.673; ENMIN  =  197.755 eV

 POTCAR:    PAW_PBE Si 05Jan2001
   VRHFIN =Si: s2p2

   TITEL  = PAW_PBE Si 05Jan2001
   POMASS =   28.085; ZVAL   =    4.000    mass and valenz
   ENMAX  =  245.345; ENMIN  =  184.009 eV

 POTCAR:    PAW_PBE O 08Apr2002
   VRHFIN =O: s2p4

   TITEL  = PAW_PBE O 08Apr2002
   POMASS =   16.000; ZVAL   =    6.000    mass and valenz
   ENMAX  =  400.000; ENMIN  =  300.000 eV

 Optimization of the real space projectors (new method)

 maximal supplied QI-value         = 16.25
 optimisation between [QCUT,QGAM] = [ 11.54, 23.24] = [ 37.28,151.24] Ry
 Optimized for a Real-space Cutoff    1.58 Angstroem

   l    n(q)    QCUT    max X(q) W(low)/X(q) W(high)/X(q)  e(spline)
   0     11    11.539    11.817    0.25E-04    0.22E-05    0.26E-07
   0     11    11.539     8.461    0.39E-04    0.49E-05    0.55E-07
   1     11    11.539     3.957    0.21E-05    0.44E-05    0.32E-07
   1     11    11.539     4.314    0.56E-04    0.44E-04    0.19E-06
   2     10    11.539    14.565    0.25E-03    0.21E-04    0.75E-06
   2     10    11.539    14.552    0.23E-03    0.22E-04    0.72E-06
 Optimization of the real space projectors (new method)

[...]

   l    n(q)    QCUT    max X(q) W(low)/X(q) W(high)/X(q)  e(spline)
   0      8    11.508   159.560    0.71E-04    0.15E-03    0.51E-07
   0      8    11.508   115.863    0.70E-04    0.15E-03    0.51E-07
   1      8    11.508    88.339    0.16E-03    0.38E-04    0.82E-07
   1      8    11.508    48.592    0.15E-03    0.36E-04    0.79E-07
 Optimization of the real space projectors (new method)

 maximal supplied QI-value         = 24.76
 optimisation between [QCUT,QGAM] = [ 11.64, 23.27] = [ 37.91,151.63] Ry
 Optimized for a Real-space Cutoff    1.14 Angstroem

   l    n(q)    QCUT    max X(q) W(low)/X(q) W(high)/X(q)  e(spline)
   0      8    11.635    20.381    0.10E-03    0.33E-03    0.24E-06
   0      8    11.635    15.268    0.11E-03    0.35E-03    0.26E-06
   1      7    11.635     5.964    0.24E-03    0.31E-03    0.30E-06
   1      7    11.635     5.382    0.22E-03    0.25E-03    0.26E-06
  PAW_PBE Ca_sv 06Sep2000               :
  PAW_PBE V_pv 07Sep2000                :
  PAW_PBE Si 05Jan2001                  :
  PAW_PBE O 08Apr2002                   :

 POSCAR: Ca12 V8 Si12 O48
  positions in direct lattice
  velocities in cartesian coordinates

 METAGGA = SCAN     LMAXTAU =  6    LMIXTAU =  F

 ion  position               nearest neighbor table
   1  0.750  0.625  0.374-  62 2.37  46 2.37  45 2.37  61 2.38  65 2.48  49 2.49  68 2.51  52 2.52
                            21 3.02  28 3.03
   2  0.249  0.875  0.125-  64 2.35  48 2.37  47 2.38  63 2.38  51 2.50  50 2.50  67 2.50  66 2.54
                            22 3.02  27 3.03
   3  0.125  0.750  0.375-  58 2.35  49 2.36  57 2.38  50 2.38  64 2.49  53 2.49  56 2.51  61 2.53
                            23 3.02  30 3.02
   4  0.376  0.250  0.125-  52 2.35  51 2.37  60 2.37  59 2.38  55 2.50  63 2.50  62 2.51  54 2.53
                            29 3.01  24 3.03
   5  0.375  0.625  0.250-  65 2.35  53 2.35  54 2.37  66 2.38  60 2.51  57 2.51  48 2.52  45 2.52
                            32 3.01  25 3.01
   6  0.126  0.874  0.750-  55 2.35  67 2.35  68 2.37  56 2.38  58 2.47  46 2.51  47 2.52  59 2.55
                            31 3.01  26 3.02
   7  0.250  0.375  0.626-  74 2.37  34 2.37  33 2.37  73 2.38  77 2.48  37 2.49  80 2.51  40 2.51
                            27 3.02  22 3.03
   8  0.751  0.125  0.875-  76 2.35  36 2.38  35 2.38  75 2.38  39 2.50  38 2.50  79 2.50  78 2.54
                            28 3.02  21 3.03
   9  0.875  0.250  0.625-  70 2.35  37 2.36  69 2.38  38 2.38  76 2.49  41 2.49  44 2.51  73 2.53
                            29 3.02  24 3.02
  10  0.624  0.750  0.875-  40 2.35  39 2.37  72 2.37  71 2.38  43 2.50  75 2.50  74 2.51  42 2.53
                            23 3.01  30 3.03
  11  0.625  0.375  0.750-  77 2.35  41 2.35  42 2.37  78 2.38  72 2.51  69 2.51  36 2.52  33 2.52
                            26 3.01  31 3.01
  12  0.874  0.126  0.250-  43 2.35  79 2.35  80 2.37  44 2.38  70 2.47  34 2.51  35 2.52  71 2.55
                            25 3.01  32 3.02
  13  1.000  1.000  0.500-  44 2.00  56 2.00  34 2.02  46 2.02  49 2.06  37 2.06
  14  0.500  0.500  0.500-  54 2.01  42 2.01  45 2.02  33 2.02  40 2.07  52 2.07
  15  1.000  0.500  0.000-  50 2.00  38 2.00  36 2.02  48 2.02  41 2.06  53 2.06
  16  0.500  1.000  0.000-  47 2.00  35 2.00  51 2.01  39 2.01  55 2.07  43 2.07
  17  1.000  0.500  0.500-  68 2.01  80 2.01  61 2.01  73 2.02  70 2.06  58 2.06
  18  0.500  1.000  0.500-  69 2.01  57 2.01  66 2.01  78 2.01  76 2.07  64 2.07
  19  0.500  0.500  0.000-  60 2.01  72 2.02  74 2.02  62 2.02  65 2.05  77 2.05
  20  1.000  0.000  0.000-  71 2.01  59 2.01  63 2.01  75 2.01  79 2.07  67 2.07
  21  0.749  0.374  0.124-  62 1.64  61 1.64  35 1.64  36 1.64   1 3.02   8 3.03
  22  0.249  0.125  0.374-  64 1.63  34 1.65  33 1.65  63 1.65   2 3.02   7 3.03
  23  0.376  0.752  0.626-  40 1.64  58 1.64  57 1.65  39 1.65  10 3.01   3 3.02
  24  0.125  0.252  0.877-  37 1.63  59 1.65  38 1.65  60 1.65   9 3.02   4 3.03
  25  0.627  0.875  0.251-  43 1.64  65 1.64  44 1.65  66 1.65   5 3.01  12 3.01
  26  0.875  0.623  0.748-  41 1.64  67 1.64  68 1.65  42 1.65  11 3.01   6 3.02
  27  0.251  0.626  0.876-  74 1.64  73 1.64  47 1.64  48 1.64   7 3.02   2 3.03
  28  0.751  0.875  0.626-  76 1.63  46 1.65  45 1.65  75 1.65   8 3.02   1 3.03
  29  0.624  0.248  0.374-  52 1.64  70 1.64  69 1.65  51 1.65   4 3.01   9 3.02
  30  0.875  0.748  0.123-  49 1.63  71 1.65  50 1.65  72 1.65   3 3.02  10 3.03
  31  0.373  0.125  0.749-  55 1.64  77 1.64  56 1.65  78 1.65  11 3.01   6 3.01
  32  0.125  0.377  0.252-  53 1.64  79 1.64  80 1.65  54 1.65   5 3.01  12 3.02
  33  0.392  0.305  0.507-  22 1.65  14 2.02   7 2.37  11 2.52
  34  0.106  0.116  0.411-  22 1.65  13 2.02   7 2.37  12 2.51
  35  0.701  0.194  0.087-  21 1.64  16 2.00   8 2.38  12 2.52
  36  0.797  0.384  0.992-  21 1.64  15 2.02   8 2.38  11 2.52
  37  0.089  0.208  0.698-  24 1.63  13 2.06   9 2.36   7 2.49
  38  0.993  0.299  0.887-  24 1.65  15 2.00   9 2.38   8 2.50
  39  0.510  0.896  0.807-  23 1.65  16 2.01  10 2.37   8 2.50
  40  0.411  0.610  0.619-  23 1.64  14 2.07  10 2.35   7 2.51
  41  0.881  0.488  0.791-  26 1.64  15 2.06  11 2.35   9 2.49
  42  0.694  0.587  0.701-  26 1.65  14 2.01  11 2.37  10 2.53
  43  0.618  0.911  0.109-  25 1.64  16 2.07  12 2.35  10 2.50
  44  0.807  0.008  0.395-  25 1.65  13 2.00  12 2.38   9 2.51
  45  0.608  0.695  0.493-  28 1.65  14 2.02   1 2.37   5 2.52
  46  0.894  0.884  0.588-  28 1.65  13 2.02   1 2.37   6 2.51
  47  0.299  0.806  0.913-  27 1.64  16 2.00   2 2.38   6 2.52
  48  0.203  0.616  0.008-  27 1.64  15 2.02   2 2.37   5 2.52
  49  0.911  0.792  0.302-  30 1.63  13 2.06   3 2.36   1 2.49
  50  0.007  0.701  0.113-  30 1.65  15 2.00   3 2.38   2 2.50
  51  0.490  0.104  0.193-  29 1.65  16 2.01   4 2.37   2 2.50
  52  0.589  0.390  0.381-  29 1.64  14 2.07   4 2.35   1 2.52
  53  0.119  0.512  0.209-  32 1.64  15 2.06   5 2.35   3 2.49
  54  0.306  0.413  0.299-  32 1.65  14 2.01   5 2.37   4 2.53
  55  0.382  0.089  0.891-  31 1.64  16 2.07   6 2.35   4 2.50
  56  0.193  0.992  0.605-  31 1.65  13 2.00   6 2.38   3 2.51
  57  0.387  0.798  0.493-  23 1.65  18 2.01   3 2.38   5 2.51
  58  0.197  0.709  0.590-  23 1.64  17 2.06   3 2.35   6 2.47
  59  0.114  0.109  0.913-  24 1.65  20 2.01   4 2.38   6 2.55
  60  0.306  0.394  0.010-  24 1.65  19 2.01   4 2.37   5 2.51
  61  0.892  0.506  0.305-  21 1.64  17 2.01   1 2.38   3 2.53
  62  0.607  0.413  0.115-  21 1.64  19 2.02   1 2.37   4 2.51
  63  0.203  0.089  0.194-  22 1.65  20 2.01   2 2.38   4 2.50
  64  0.291  0.990  0.381-  22 1.63  18 2.07   2 2.35   3 2.49
  65  0.589  0.696  0.208-  25 1.64  19 2.05   5 2.35   1 2.48
  66  0.493  0.886  0.299-  25 1.65  18 2.01   5 2.38   2 2.54
  67  0.009  0.801  0.890-  26 1.64  20 2.07   6 2.35   2 2.50
  68  0.912  0.614  0.604-  26 1.65  17 2.01   6 2.37   1 2.51
  69  0.613  0.202  0.507-  29 1.65  18 2.01   9 2.38  11 2.51
  70  0.803  0.291  0.410-  29 1.64  17 2.06   9 2.35  12 2.47
  71  0.886  0.891  0.087-  30 1.65  20 2.01  10 2.38  12 2.55
  72  0.694  0.606  0.990-  30 1.65  19 2.02  10 2.37  11 2.51
  73  0.108  0.494  0.695-  27 1.64  17 2.02   7 2.38   9 2.53
  74  0.393  0.587  0.885-  27 1.64  19 2.02   7 2.37  10 2.51
  75  0.797  0.911  0.806-  28 1.65  20 2.01   8 2.38  10 2.50
  76  0.709  0.010  0.619-  28 1.63  18 2.07   8 2.35   9 2.49
  77  0.411  0.304  0.793-  31 1.64  19 2.05  11 2.35   7 2.48
  78  0.507  0.114  0.702-  31 1.65  18 2.01  11 2.38   8 2.54
  79  0.991  0.199  0.110-  32 1.64  20 2.07  12 2.35   8 2.50
  80  0.088  0.386  0.396-  32 1.65  17 2.01  12 2.37   7 2.51

IMPORTANT INFORMATION: All symmetrisations will be switched off!
NOSYMM: (Re-)initialisation of all symmetry stuff for point group C_1.

                                     Primitive cell

  volume of cell :     881.3903

  direct lattice vectors                    reciprocal lattice vectors
     6.011973734  6.044792649  6.044832281     0.083014339  0.082806976  0.000061040
     6.045307982 -6.055974868 -6.066185892     0.082791447  0.000188523 -0.082529930
    -6.023479112  6.043007002 -6.028761981    -0.000069757  0.082838013 -0.082768092

  length of vectors
    10.450997257 10.489003360 10.447306124     0.117253483  0.116900165  0.117101231

  position of ions in fractional coordinates (direct lattice)
     0.749766302  0.625373000  0.374005626
     0.248548361  0.874954956  0.124851500
     0.125318496  0.750492305  0.375169696
     0.376038785  0.249660878  0.125183987
     0.375021438  0.625222118  0.250374021
     0.125697957  0.874085482  0.749615999
     0.250222227  0.374627290  0.625994210
     0.751448101  0.125037000  0.875145071
     0.874700450  0.249533616  0.624844888
     0.623962254  0.750336372  0.874804330
     0.624943566  0.374773762  0.749601695
     0.874294135  0.125924012  0.250375644
     0.999987643  0.999999162  0.499994110
     0.499986917  0.499996902  0.499989457
     0.999978723  0.500000140  0.000003921
     0.499991582  0.999992156  0.000001429
     0.999985695  0.500007782  0.499996116
     0.499999812  0.999999366  0.500004355
     0.499988453  0.499995609  0.000001211
     0.999999804  0.000002712  0.000007619
     0.748988951  0.374112996  0.124471380
     0.248626359  0.124675583  0.373781354
     0.375821769  0.752053825  0.626323458
[...]
   0.780E+00 0.142E+01 0.212E+01   -.606E+00 -.164E+01 -.111E+01   -.171E+00 0.219E+00 -.968E+00   -.136E-04 0.887E-05 -.203E-04
   0.843E+00 0.276E+01 0.195E+01   -.779E+00 -.181E+01 -.205E+01   -.690E-01 -.928E+00 0.971E-01   0.383E-04 -.390E-05 0.444E-04
   0.132E+00 -.344E+00 0.986E+00   -.142E+00 0.332E+00 -.940E+00   0.915E-02 0.305E-01 -.459E-01   -.966E-04 -.722E-04 0.571E-04
   0.259E+01 -.110E+01 -.138E+01   -.211E+01 0.431E+00 0.795E+00   -.461E+00 0.623E+00 0.571E+00   0.753E-05 0.614E-04 0.610E-04
   0.293E+01 0.644E+00 0.167E+01   -.188E+01 -.553E+00 -.201E+01   -.100E+01 -.718E-01 0.326E+00   -.599E-04 -.898E-04 -.390E-04
   -.234E+01 0.311E+01 -.117E+01   0.188E+01 -.249E+01 0.442E+00   0.435E+00 -.598E+00 0.704E+00   -.126E-04 -.403E-04 0.693E-04
   -.788E+00 -.145E+01 -.211E+01   0.614E+00 0.166E+01 0.111E+01   0.171E+00 -.211E+00 0.965E+00   0.907E-05 -.771E-05 0.185E-04
   -.860E+00 -.278E+01 -.197E+01   0.792E+00 0.182E+01 0.206E+01   0.741E-01 0.932E+00 -.882E-01   -.421E-04 0.137E-04 -.475E-04
   0.550E+02 -.418E+02 -.300E+02   -.445E+02 0.528E+02 0.194E+02   -.105E+02 -.111E+02 0.106E+02   0.281E-03 -.358E-03 0.108E-02
   -.564E+02 0.446E+02 -.288E+02   0.460E+02 -.558E+02 0.179E+02   0.105E+02 0.112E+02 0.109E+02   -.291E-03 0.297E-03 0.105E-02
   -.605E+02 -.401E+02 0.283E+02   0.498E+02 0.516E+02 -.177E+02   0.107E+02 -.116E+02 -.107E+02   -.220E-03 -.353E-03 -.106E-02
   0.583E+02 0.424E+02 0.274E+02   -.475E+02 -.539E+02 -.167E+02   -.109E+02 0.115E+02 -.107E+02   0.370E-03 0.451E-03 -.113E-02
   -.377E+02 -.269E+02 0.479E+02   0.492E+02 0.155E+02 -.357E+02   -.115E+02 0.114E+02 -.122E+02   -.347E-03 0.105E-02 0.351E-03
   0.411E+02 -.310E+02 -.589E+02   -.520E+02 0.203E+02 0.486E+02   0.109E+02 0.106E+02 0.103E+02   0.345E-03 0.110E-02 -.423E-03
   -.441E+02 0.284E+02 -.581E+02   0.551E+02 -.179E+02 0.481E+02   -.111E+02 -.104E+02 0.101E+02   -.375E-03 -.112E-02 -.328E-03
   0.396E+02 0.266E+02 0.455E+02   -.513E+02 -.157E+02 -.336E+02   0.118E+02 -.110E+02 -.119E+02   0.345E-03 -.111E-02 0.405E-03
   -.260E+02 0.485E+02 -.397E+02   0.149E+02 -.368E+02 0.513E+02   0.111E+02 -.117E+02 -.116E+02   0.123E-02 0.378E-03 -.439E-03
   -.292E+02 -.600E+02 0.438E+02   0.191E+02 0.497E+02 -.556E+02   0.101E+02 0.103E+02 0.117E+02   0.115E-02 -.220E-03 0.345E-03
   0.269E+02 -.479E+02 -.408E+02   -.158E+02 0.358E+02 0.523E+02   -.111E+02 0.120E+02 -.115E+02   -.111E-02 -.467E-03 -.413E-03
   0.292E+02 0.609E+02 0.409E+02   -.188E+02 -.506E+02 -.526E+02   -.104E+02 -.103E+02 0.117E+02   -.101E-02 0.341E-03 0.385E-03
   -.550E+02 0.417E+02 0.300E+02   0.445E+02 -.528E+02 -.194E+02   0.105E+02 0.111E+02 -.106E+02   -.262E-03 0.340E-03 -.108E-02
   0.564E+02 -.446E+02 0.288E+02   -.460E+02 0.558E+02 -.179E+02   -.105E+02 -.112E+02 -.109E+02   0.305E-03 -.314E-03 -.105E-02
   0.606E+02 0.401E+02 -.284E+02   -.500E+02 -.517E+02 0.177E+02   -.107E+02 0.116E+02 0.107E+02   0.233E-03 0.358E-03 0.106E-02
   -.582E+02 -.423E+02 -.274E+02   0.473E+02 0.539E+02 0.167E+02   0.109E+02 -.115E+02 0.107E+02   -.354E-03 -.443E-03 0.113E-02
   0.377E+02 0.269E+02 -.479E+02   -.492E+02 -.155E+02 0.357E+02   0.115E+02 -.114E+02 0.122E+02   0.351E-03 -.105E-02 -.342E-03
   -.411E+02 0.310E+02 0.590E+02   0.520E+02 -.203E+02 -.487E+02   -.109E+02 -.107E+02 -.103E+02   -.347E-03 -.108E-02 0.439E-03
   0.440E+02 -.284E+02 0.582E+02   -.551E+02 0.180E+02 -.482E+02   0.111E+02 0.104E+02 -.101E+02   0.362E-03 0.110E-02 0.315E-03
   -.395E+02 -.266E+02 -.455E+02   0.513E+02 0.157E+02 0.336E+02   -.118E+02 0.110E+02 0.119E+02   -.360E-03 0.110E-02 -.412E-03
   0.260E+02 -.485E+02 0.397E+02   -.149E+02 0.368E+02 -.513E+02   -.112E+02 0.117E+02 0.116E+02   -.124E-02 -.377E-03 0.436E-03
   0.292E+02 0.600E+02 -.439E+02   -.191E+02 -.498E+02 0.556E+02   -.101E+02 -.103E+02 -.117E+02   -.117E-02 0.219E-03 -.349E-03
   -.269E+02 0.479E+02 0.408E+02   0.159E+02 -.358E+02 -.523E+02   0.111E+02 -.120E+02 0.115E+02   0.111E-02 0.475E-03 0.420E-03
   -.292E+02 -.608E+02 -.408E+02   0.188E+02 0.505E+02 0.525E+02   0.104E+02 0.103E+02 -.117E+02   0.103E-02 -.345E-03 -.371E-03
   0.583E+02 -.309E+02 -.443E+02   -.481E+02 0.205E+02 0.555E+02   -.101E+02 0.104E+02 -.112E+02   0.260E-03 0.114E-02 -.244E-03
   -.484E+02 -.256E+02 0.379E+02   0.367E+02 0.143E+02 -.495E+02   0.117E+02 0.113E+02 0.116E+02   -.276E-03 0.126E-02 0.409E-03
   -.591E+02 0.291E+02 -.431E+02   0.485E+02 -.187E+02 0.548E+02   0.106E+02 -.104E+02 -.117E+02   -.333E-03 -.105E-02 -.349E-03
   0.598E+02 0.270E+02 0.424E+02   -.493E+02 -.161E+02 -.537E+02   -.105E+02 -.109E+02 0.114E+02   0.345E-03 -.105E-02 0.354E-03
[...]
   0.262E+02 -.383E+02 -.457E+02   -.153E+02 0.497E+02 0.338E+02   -.110E+02 -.114E+02 0.120E+02   -.114E-02 -.472E-03 -.381E-03
   0.300E+02 0.443E+02 0.597E+02   -.193E+02 -.556E+02 -.496E+02   -.107E+02 0.113E+02 -.101E+02   -.111E-02 0.338E-03 0.331E-03
   -.583E+02 0.309E+02 0.443E+02   0.482E+02 -.205E+02 -.555E+02   0.101E+02 -.104E+02 0.112E+02   -.260E-03 -.113E-02 0.265E-03
   0.484E+02 0.255E+02 -.380E+02   -.367E+02 -.142E+02 0.495E+02   -.117E+02 -.113E+02 -.116E+02   0.252E-03 -.126E-02 -.405E-03
   0.592E+02 -.291E+02 0.431E+02   -.486E+02 0.187E+02 -.548E+02   -.106E+02 0.104E+02 0.118E+02   0.329E-03 0.107E-02 0.343E-03
   -.597E+02 -.269E+02 -.424E+02   0.492E+02 0.161E+02 0.537E+02   0.105E+02 0.109E+02 -.114E+02   -.336E-03 0.105E-02 -.342E-03
   0.413E+02 -.572E+02 0.293E+02   -.528E+02 0.462E+02 -.186E+02   0.115E+02 0.111E+02 -.108E+02   0.451E-03 -.271E-03 -.109E-02
   -.409E+02 0.560E+02 0.307E+02   0.518E+02 -.452E+02 -.198E+02   -.109E+02 -.108E+02 -.110E+02   -.417E-03 0.329E-03 -.100E-02
   0.431E+02 0.571E+02 -.294E+02   -.543E+02 -.469E+02 0.189E+02   0.112E+02 -.102E+02 0.105E+02   0.332E-03 0.345E-03 0.118E-02
   -.380E+02 -.467E+02 -.254E+02   0.497E+02 0.346E+02 0.142E+02   -.117E+02 0.121E+02 0.112E+02   -.398E-03 -.352E-03 0.116E-02
   0.266E+02 0.379E+02 -.501E+02   -.154E+02 -.494E+02 0.385E+02   -.111E+02 0.115E+02 0.116E+02   -.107E-02 0.355E-03 -.390E-03
   0.283E+02 -.443E+02 0.599E+02   -.183E+02 0.559E+02 -.494E+02   -.100E+02 -.116E+02 -.105E+02   -.110E-02 -.321E-03 0.232E-03
   -.263E+02 0.383E+02 0.457E+02   0.153E+02 -.497E+02 -.338E+02   0.110E+02 0.114E+02 -.120E+02   0.116E-02 0.482E-03 0.364E-03
   -.299E+02 -.443E+02 -.596E+02   0.192E+02 0.556E+02 0.494E+02   0.107E+02 -.113E+02 0.102E+02   0.111E-02 -.331E-03 -.325E-03
   -.987E-02 0.604E-01 0.152E-01   0.227E-12 -.206E-12 -.924E-13   0.116E-01 -.593E-01 -.103E-01   -.182E-03 0.325E-03 0.334E-03

 POSITION                                       TOTAL-FORCE (eV/Angst)
      6.03533      3.00506     -1.51621        -0.008692      0.005866     -0.000847
      6.03160     -3.04180     -4.55791        -0.001256     -0.006525     -0.004043
      3.03054     -1.52029     -6.05691         0.004364     -0.004969      0.000240
      3.01597      1.51762      0.00390         0.005282     -0.001663     -0.002224
      4.52616     -0.00639     -3.03522         0.002843      0.016178     -0.018529
      1.52451     -0.00369     -9.06180         0.004668     -0.002231      0.002689
     -0.00160      3.02670     -4.53398         0.008705     -0.006333      0.000841
      0.00216      9.07363     -1.49216         0.001292      0.006569      0.003565
      3.00344      7.55216      0.00666        -0.004778      0.004783     -0.000791
      3.01789      4.51415     -6.05392        -0.005439      0.001499      0.001999
      1.50756      6.03788     -3.01494        -0.002550     -0.016120      0.018453
      4.50935      6.03536      3.01163        -0.005149      0.002419     -0.002582
      9.04550      3.01022     -3.03577        -0.000132     -0.000174      0.000433
      3.01687      3.01579     -3.02505        -0.000252     -0.000295      0.000463
      9.03448      3.01670      3.01159        -0.000037      0.000437      0.000202
      9.05119     -3.03357     -3.04378         0.000046     -0.000535      0.000428
      6.02287      6.03815     -0.00275         0.000714      0.000621      0.000892
      6.03952     -0.01205     -6.05817         0.000591     -0.000785      0.000487
      6.02854     -0.00563     -0.01073         0.001015      0.000590     -0.000284
      6.01194      6.04482      6.04477        -0.000032      0.000534      0.000626
      6.01478      3.01405      1.50767         0.001238     -0.019764      0.000606
     -0.00303      3.00663     -1.50684         0.000447      0.011770     -0.013100
      3.03318      1.50222     -6.06627        -0.005797     -0.016820     -0.008805
     -3.00492      4.53068     -6.05304         0.001789      0.004320     -0.006250
      7.53994      0.01115     -3.03312        -0.004553      0.003989     -0.001181
      4.52023      6.03141     -3.00011        -0.006766     -0.019768      0.000420
      0.01914      3.01804     -7.55784        -0.001267      0.020955     -0.000983
      6.03678      3.02504     -4.54332        -0.000073     -0.011295      0.013670
      3.00059      4.52957      0.01626         0.004739      0.016547      0.007342
      9.03875      1.50107      0.00294        -0.003061     -0.004089      0.006103
     -1.50620      6.02074     -3.01691         0.004292     -0.003174      0.000693
      1.51347      0.00048     -3.05003         0.008267      0.019844     -0.000286
      1.14422      3.58725     -2.53643        -0.014183     -0.012534      0.000319
     -1.13884      2.42276     -2.54594        -0.004730     -0.004432      0.002702
      4.86736      3.58394      2.53695        -0.010879      0.010829      0.010730
      1.13828      8.48153     -3.49199        -0.006564      0.006624      0.002520
     -2.41478      3.50232     -4.93160         0.006679      0.001995     -0.001518
      2.43305      9.55028     -1.16283        -0.001985     -0.001036      0.004379
      3.62407      2.53675     -7.21024         0.005206      0.005582      0.001958
      2.42930      2.53025     -4.94556         0.002628      0.005050      0.004437
      3.48419      7.15046     -2.40602        -0.000492      0.003120      0.010017
      3.49629      4.87821     -3.59454         0.004370      0.012550      0.002403
      8.56658     -1.11723     -2.44258        -0.002259      0.006433     -0.001541
      2.52365      7.21567      2.44772        -0.014179     -0.004010      0.002673
      4.88955      2.44443     -3.51362         0.014952      0.013106     -0.002263
      7.17256      3.60897     -3.50418         0.003490      0.004098     -0.002542
      1.16679      2.44815     -8.58716         0.010169     -0.010386     -0.010580
      4.89581     -2.44941     -2.55819         0.008105     -0.006785     -0.001729
      8.44859      2.52936     -1.11856        -0.005815     -0.001785      0.001581
      3.60073     -3.51846     -4.88729         0.002328      0.000698     -0.005133
      2.40974      3.49505      1.16034        -0.004334     -0.005493     -0.001365
      3.60440      3.50153     -1.10451        -0.002812     -0.004745     -0.003373
      2.54938     -1.11860     -3.64419        -0.000227     -0.002371     -0.010563
      2.53765      1.15363     -2.45558        -0.004642     -0.012176     -0.003218
     -2.53297      7.14913     -3.60745         0.002199     -0.006395      0.001913
      3.51019     -1.18375     -8.49768         0.014529      0.003772     -0.002663
      4.18423      0.48054     -5.47554        -0.004230      0.003954      0.000331
      1.92014      0.46421     -6.66844         0.017606      0.005924      0.001966
     -4.15816      5.55417     -5.47362         0.004942     -0.000405      0.002538
      4.15807     -0.46961     -0.59889         0.007864      0.009275     -0.007411
[...]
      6.52055     -0.57956     -4.19209         0.004270      0.002990      0.007730
     -0.46363      0.58127    -10.17295         0.000528      0.003050      0.006047
      5.55453      5.44206     -1.86035        -0.005598     -0.005629      0.001043
      1.84949      5.55125     -0.57450         0.003872     -0.003655     -0.000273
      4.11360      5.56765      0.61820        -0.018235     -0.006076     -0.001412
     10.19208      0.47761     -0.57643        -0.003602     -0.000181     -0.002317
      1.87584      6.50142     -5.45115        -0.008026     -0.009571      0.007818
     -0.55123      1.86664     -6.53379        -0.002180     -0.013989      0.000897
      0.57858      4.16732     -6.52577        -0.000669     -0.011049     -0.011180
      5.44586      4.17132     -5.56926         0.003229      0.008337     -0.013677
      0.59383      7.96311      0.49441        -0.003622      0.003914     -0.009096
     -0.46575      5.43416     -4.13588        -0.001892     -0.001500      0.005849
     -0.48662      6.61150     -1.85811        -0.004765     -0.003100     -0.007633
      6.49751      5.45061      4.12301        -0.000821     -0.002663     -0.007303
      0.47914      0.58993     -4.18960         0.005623      0.004727     -0.001832
    total drift:                                0.001528      0.001419      0.005261

  FREE ENERGIE OF THE ION-ELECTRON SYSTEM (eV)
  free  energy   TOTEN  =      -923.84293165 eV

  energy  without entropy=     -923.84293165  energy(sigma->0) =     -923.84293165

 reached required accuracy - stopping structural energy minimisation

 total charge

[...]

 magnetization (x)

# of ion       s       p       d       tot
    1        0.000  -0.000   0.000   0.000
    2        0.000  -0.000   0.000  -0.000
    3        0.000  -0.000   0.000   0.000
    4        0.000  -0.000   0.000  -0.000
    5        0.000  -0.000   0.000  -0.000
    6        0.000  -0.000   0.000   0.000
    7        0.000  -0.000   0.000   0.000
    8        0.000  -0.000   0.000  -0.000
    9        0.000  -0.000   0.000   0.000
   10        0.000  -0.000   0.000  -0.000
   11        0.000  -0.000   0.000  -0.000
   12        0.000  -0.000   0.000   0.000
   13        0.007   0.012   1.838   1.857
   14        0.007   0.012   1.837   1.856
   15        0.007   0.012   1.833   1.853
   16        0.007   0.012   1.836   1.855
   17        0.007   0.012   1.836   1.855
   18        0.007   0.012   1.837   1.857
   19        0.006   0.012   1.832   1.851
   20        0.007   0.012   1.836   1.855
   21        0.003   0.005   0.000   0.008
   22        0.002   0.003   0.000   0.005
   23        0.002   0.003   0.000   0.005
   24        0.003   0.005   0.000   0.008
   25        0.003   0.005   0.000   0.008
   26        0.003   0.004   0.000   0.007
   27        0.003   0.005   0.000   0.008
   28        0.002   0.003   0.000   0.005
   29        0.002   0.003   0.000   0.005
   30        0.003   0.005   0.000   0.008
   31        0.003   0.005   0.000   0.008
   32        0.003   0.004   0.000   0.007
   33       -0.000  -0.003   0.000  -0.003
   34       -0.000  -0.003   0.000  -0.004
   35       -0.000  -0.007   0.000  -0.007
   36       -0.000  -0.005   0.000  -0.006
   37        0.000   0.012   0.000   0.012
   38       -0.000  -0.003   0.000  -0.004
   39       -0.000  -0.003   0.000  -0.003
   40        0.000   0.012   0.000   0.012
   41        0.000   0.011   0.000   0.011
   42       -0.000  -0.007   0.000  -0.007
   43        0.000   0.012   0.000   0.012
   44       -0.000  -0.007   0.000  -0.007
   45       -0.000  -0.003   0.000  -0.003
   46       -0.000  -0.003   0.000  -0.004
   47       -0.000  -0.007   0.000  -0.007
   48       -0.000  -0.005   0.000  -0.005
   49        0.000   0.012   0.000   0.012
   50       -0.000  -0.003   0.000  -0.004
   51       -0.000  -0.003   0.000  -0.004
   52        0.000   0.012   0.000   0.012
   53        0.000   0.011   0.000   0.011
   54       -0.000  -0.007   0.000  -0.007
   55        0.000   0.012   0.000   0.012
   56       -0.000  -0.007   0.000  -0.007
   57       -0.000  -0.002   0.000  -0.002
   58        0.000   0.012   0.000   0.012
   59       -0.000  -0.007   0.000  -0.007
   60       -0.000  -0.006   0.000  -0.006
[...]
   66       -0.000  -0.007   0.000  -0.008
   67        0.000   0.012   0.000   0.012
   68       -0.000  -0.002   0.000  -0.003
   69       -0.000  -0.002   0.000  -0.002
   70        0.000   0.012   0.000   0.012
   71       -0.000  -0.007   0.000  -0.007
   72       -0.000  -0.005   0.000  -0.006
   73       -0.000  -0.006   0.000  -0.007
   74       -0.000  -0.002   0.000  -0.002
   75       -0.000  -0.003   0.000  -0.004
   76        0.000   0.012   0.000   0.012
   77        0.000   0.011   0.000   0.012
   78       -0.000  -0.007   0.000  -0.008
   79        0.000   0.012   0.000   0.012
   80       -0.000  -0.002   0.000  -0.003
tot          0.083   0.184  14.688  14.954