 vasp.6.1.2 22Jul20 (build Dec 05 2020 14:50:36) complex

 executed on         CrayXC-Intel date 2021.06.03  09:26:13

 INCAR:
 POTCAR:    PAW_PBE Ca_sv 06Sep2000
 POTCAR:    PAW_PBE Si 05Jan2001
 POTCAR:    PAW_PBE O 08Apr2002
 POTCAR:    PAW_PBE Ca_sv 06Sep2000
   VRHFIN =Ca: 3s3p4s

   TITEL  = PAW_PBE Ca_sv 06Sep2000
   POMASS =   40.078; ZVAL   =   10.000    mass and valenz
   ENMAX  =  266.622; ENMIN  =  199.967 eV

 POTCAR:    PAW_PBE Si 05Jan2001
   VRHFIN =Si: s2p2

   TITEL  = PAW_PBE Si 05Jan2001
   POMASS =   28.085; ZVAL   =    4.000    mass and valenz
   ENMAX  =  245.345; ENMIN  =  184.009 eV

 POTCAR:    PAW_PBE O 08Apr2002
   VRHFIN =O: s2p4

   TITEL  = PAW_PBE O 08Apr2002
   POMASS =   16.000; ZVAL   =    6.000    mass and valenz
   ENMAX  =  400.000; ENMIN  =  300.000 eV

 Optimization of the real space projectors (new method)

 maximal supplied QI-value         = 16.25
 optimisation between [QCUT,QGAM] = [ 11.54, 23.24] = [ 37.28,151.24] Ry
 Optimized for a Real-space Cutoff    1.58 Angstroem

   l    n(q)    QCUT    max X(q) W(low)/X(q) W(high)/X(q)  e(spline)
   0     11    11.539    11.817    0.25E-04    0.22E-05    0.26E-07
   0     11    11.539     8.461    0.39E-04    0.49E-05    0.55E-07
   1     11    11.539     3.957    0.21E-05    0.44E-05    0.32E-07
   1     11    11.539     4.314    0.56E-04    0.44E-04    0.19E-06
   2     10    11.539    14.565    0.25E-03    0.21E-04    0.75E-06
   2     10    11.539    14.552    0.23E-03    0.22E-04    0.72E-06
 Optimization of the real space projectors (new method)

[...]

   l    n(q)    QCUT    max X(q) W(low)/X(q) W(high)/X(q)  e(spline)
   0      8    11.508   159.560    0.71E-04    0.15E-03    0.51E-07
   0      8    11.508   115.863    0.70E-04    0.15E-03    0.51E-07
   1      8    11.508    88.339    0.16E-03    0.38E-04    0.82E-07
   1      8    11.508    48.592    0.15E-03    0.36E-04    0.79E-07
 Optimization of the real space projectors (new method)

 maximal supplied QI-value         = 24.76
 optimisation between [QCUT,QGAM] = [ 11.64, 23.27] = [ 37.91,151.63] Ry
 Optimized for a Real-space Cutoff    1.14 Angstroem

   l    n(q)    QCUT    max X(q) W(low)/X(q) W(high)/X(q)  e(spline)
   0      8    11.635    20.381    0.10E-03    0.33E-03    0.24E-06
   0      8    11.635    15.268    0.11E-03    0.35E-03    0.26E-06
   1      7    11.635     5.964    0.24E-03    0.31E-03    0.30E-06
   1      7    11.635     5.382    0.22E-03    0.25E-03    0.26E-06
  PAW_PBE Ca_sv 06Sep2000               :
  PAW_PBE Si 05Jan2001                  :
  PAW_PBE O 08Apr2002                   :

 POSCAR: Ca8 Si4 O16
  positions in direct lattice
  velocities in cartesian coordinates

 METAGGA = SCAN     LMAXTAU =  6    LMIXTAU =  F

 ion  position               nearest neighbor table
   1  0.226  0.843  0.069-  13 2.23  27 2.35  23 2.42  20 2.48  21 2.53   9 2.97  11 3.12
   2  0.726  0.657  0.569-  14 2.23  28 2.35  24 2.42  19 2.48  22 2.53  10 2.97  12 3.12
   3  0.774  0.157  0.931-  15 2.23  25 2.35  21 2.42  18 2.48  23 2.53  11 2.97   9 3.12
   4  0.274  0.343  0.431-  16 2.23  26 2.35  22 2.42  17 2.48  24 2.53  12 2.97  10 3.12
   5  0.216  0.498  0.799-  18 2.39  22 2.39  19 2.40  13 2.42  28 2.45   9 3.04  11 3.16
   6  0.716  0.002  0.299-  17 2.39  21 2.39  20 2.40  14 2.42  27 2.45  10 3.04  12 3.16
   7  0.784  0.502  0.201-  20 2.39  24 2.39  17 2.40  15 2.42  26 2.45  11 3.04   9 3.16
   8  0.284  0.998  0.701-  19 2.39  23 2.39  18 2.40  16 2.42  25 2.45  12 3.04  10 3.16
   9  0.268  0.281  0.082-  13 1.61  17 1.63  21 1.64  25 1.65   1 2.97   5 3.04   3 3.12   7 3.16

  10  0.768  0.219  0.582-  14 1.61  18 1.63  22 1.64  26 1.65   2 2.97   6 3.04   4 3.12   8 3.16

[...]

  13  0.215  0.513  0.060-   9 1.61   1 2.23   5 2.42
  14  0.715  0.987  0.560-  10 1.61   2 2.23   6 2.42
  15  0.785  0.487  0.940-  11 1.61   3 2.23   7 2.42
  16  0.285  0.013  0.440-  12 1.61   4 2.23   8 2.42
  17  0.479  0.250  0.192-   9 1.63   6 2.39   7 2.40   4 2.48
  18  0.979  0.250  0.692-  10 1.63   5 2.39   8 2.40   3 2.48
  19  0.521  0.750  0.808-  11 1.63   8 2.39   5 2.40   2 2.48
  20  0.021  0.750  0.308-  12 1.63   7 2.39   6 2.40   1 2.48
  21  0.013  0.166  0.138-   9 1.64   6 2.39   3 2.42   1 2.53
  22  0.513  0.334  0.638-  10 1.64   5 2.39   4 2.42   2 2.53
  23  0.987  0.834  0.862-  11 1.64   8 2.39   1 2.42   3 2.53
  24  0.487  0.666  0.362-  12 1.64   7 2.39   2 2.42   4 2.53
  25  0.348  0.172  0.926-   9 1.65   3 2.35   8 2.45
  26  0.848  0.328  0.426-  10 1.65   4 2.35   7 2.45
  27  0.652  0.828  0.074-  11 1.65   1 2.35   6 2.45
  28  0.152  0.672  0.574-  12 1.65   2 2.35   5 2.45

IMPORTANT INFORMATION: All symmetrisations will be switched off!
NOSYMM: (Re-)initialisation of all symmetry stuff for point group C_1.

                                     Primitive cell

  volume of cell :     343.4862

  direct lattice vectors                    reciprocal lattice vectors
     5.486766856 -0.000000025  0.464997241     0.182339828  0.000000000 -0.000980925
    -0.000000017  6.745852307  0.000000048     0.000000001  0.148239237 -0.000000001
     0.049946883  0.000000054  9.284404810    -0.009132251 -0.000000001  0.107756625

  length of vectors
     5.506435596  6.745852307  9.284539157     0.182342467  0.148239237  0.108142907

  position of ions in fractional coordinates (direct lattice)
     0.225972557  0.843065647  0.068538649
     0.725972549  0.656934345  0.568538657
     0.774025483  0.156939789  0.931458932
     0.274025492  0.343060210  0.431458916
     0.215566979  0.498436549  0.798937154
     0.715566997  0.001563446  0.298937149
     0.784432526  0.501563388  0.201062671
     0.284432510  0.998436621  0.701062670
     0.267709111  0.280802050  0.081774070
     0.767709095  0.219197961  0.581774065
     0.732291477  0.719197124  0.918226250
     0.232291484  0.780802891  0.418226246
     0.214985201  0.512662991  0.059888951
     0.714985224  0.987337085  0.559888927
     0.785018464  0.487337476  0.940110946
     0.285018461  0.012662556  0.440110984
     0.479122415  0.249675984  0.191835893
     0.979122348  0.250323996  0.691835857
     0.520874724  0.750324431  0.808165938
     0.020874692  0.749675572  0.308165925
     0.012981821  0.166192830  0.137506035
     0.512981914  0.333807114  0.637506025
     0.987018796  0.833809436  0.862492836
     0.487018835  0.666190560  0.362492818
     0.348496544  0.171536763  0.926391308
     0.848496501  0.328463205  0.426391343
     0.651503905  0.828463578  0.073610373
     0.151503895  0.671536401  0.573610413

  ion indices of the primitive-cell ions
   primitive index   ion index
                 1           1
                 2           2
                 3           3
                 4           4
                 5           5
                 6           6
                 7           7
                 8           8
                 9           9
                10          10
                11          11
                12          12
                13          13
                14          14
                15          15
                16          16
                17          17
                18          18
                19          19
                20          20
                21          21
                22          22
                23          23
                24          24
                25          25
                26          26
                27          27
                28          28

 KPOINTS: K-points file

Automatic generation of k-mesh.
Space group operators:
 irot       det(A)        alpha          n_x          n_y          n_z        tau_x        tau_y        tau_z
    1     1.000000     0.000001     1.000000     0.000000     0.000000     0.000000     0.000000     0.000000

 Subroutine IBZKPT returns following result:

 Found     62 irreducible k-points:

 Following reciprocal coordinates:
            Coordinates               Weight
  0.000000  0.000000  0.000000      1.000000
  0.166667 -0.000000 -0.000000      2.000000
  0.333333  0.000000  0.000000      2.000000
  0.500000 -0.000000  0.000000      1.000000
 -0.000000  0.200000 -0.000000      2.000000
  0.166667  0.200000  0.000000      2.000000
 -0.166667  0.200000 -0.000000      2.000000
  0.333333  0.200000  0.000000      2.000000
 -0.333333  0.200000 -0.000000      2.000000
  0.500000  0.200000 -0.000000      2.000000
 -0.000000  0.400000  0.000000      2.000000
  0.166667  0.400000 -0.000000      2.000000
 -0.166667  0.400000  0.000000      2.000000
  0.333333  0.400000 -0.000000      2.000000
 -0.333333  0.400000 -0.000000      2.000000
  0.500000  0.400000  0.000000      2.000000
 -0.000000 -0.000000  0.250000      2.000000
  0.166667 -0.000000  0.250000      2.000000
  0.333333 -0.000000  0.250000      2.000000
  0.500000 -0.000000  0.250000      2.000000
 -0.333333  0.000000  0.250000      2.000000
 -0.166667 -0.000000  0.250000      2.000000
 -0.000000  0.200000  0.250000      2.000000
  0.000000  0.200000 -0.250000      2.000000
  0.166667  0.200000  0.250000      2.000000
 -0.166667  0.200000 -0.250000      2.000000
  0.333333  0.200000  0.250000      2.000000
 -0.333333  0.200000 -0.250000      2.000000
  0.500000  0.200000  0.250000      2.000000
  0.500000  0.200000 -0.250000      2.000000
 -0.333333  0.200000  0.250000      2.000000
  0.333333  0.200000 -0.250000      2.000000
 -0.166667  0.200000  0.250000      2.000000
  0.166667  0.200000 -0.250000      2.000000
  0.000000  0.400000  0.250000      2.000000
 -0.000000  0.400000 -0.250000      2.000000
  0.166667  0.400000  0.250000      2.000000
 -0.166667  0.400000 -0.250000      2.000000
  0.333333  0.400000  0.250000      2.000000
 -0.333333  0.400000 -0.250000      2.000000
  0.500000  0.400000  0.250000      2.000000
  0.500000  0.400000 -0.250000      2.000000
 -0.333333  0.400000  0.250000      2.000000
  0.333333  0.400000 -0.250000      2.000000
 -0.166667  0.400000  0.250000      2.000000
  0.166667  0.400000 -0.250000      2.000000
 -0.000000 -0.000000  0.500000      1.000000
  0.166667 -0.000000  0.500000      2.000000
  0.333333 -0.000000  0.500000      2.000000
  0.500000 -0.000000  0.500000      1.000000
  0.000000  0.200000  0.500000      2.000000
  0.166667  0.200000  0.500000      2.000000
 -0.166667  0.200000  0.500000      2.000000
  0.333333  0.200000  0.500000      2.000000
 -0.333333  0.200000  0.500000      2.000000
  0.500000  0.200000  0.500000      2.000000
 -0.000000  0.400000  0.500000      2.000000
  0.166667  0.400000  0.500000      2.000000
 -0.166667  0.400000  0.500000      2.000000
  0.333333  0.400000  0.500000      2.000000
 -0.333333  0.400000  0.500000      2.000000
  0.500000  0.400000  0.500000      2.000000

 Following cartesian coordinates:
            Coordinates               Weight
  0.000000  0.000000  0.000000      1.000000
  0.030390  0.000000 -0.000163      2.000000
  0.060780  0.000000 -0.000327      2.000000
  0.091170  0.000000 -0.000490      1.000000
  0.000000  0.029648 -0.000000      2.000000
  0.030390  0.029648 -0.000163      2.000000
 -0.030390  0.029648  0.000163      2.000000
[...]

 E-fermi :   2.8212     XC(G=0): -11.1257     alpha+bet :-13.2492

 spin component 1

 k-point     1 :       0.0000    0.0000    0.0000
  band No.  band energies     occupation
      1     -36.9907      1.00000
      2     -36.9874      1.00000
      3     -36.9744      1.00000
      4     -36.9743      1.00000
      5     -36.7299      1.00000
      6     -36.7289      1.00000
      7     -36.7090      1.00000
      8     -36.7072      1.00000
      9     -17.7814      1.00000
     10     -17.6870      1.00000
     11     -17.5584      1.00000
     12     -17.5561      1.00000
     13     -17.5465      1.00000
     14     -17.4633      1.00000
     15     -17.3949      1.00000
     16     -17.3845      1.00000
     17     -17.3552      1.00000
     18     -17.3356      1.00000
     19     -17.2775      1.00000
     20     -17.2399      1.00000
     21     -17.2348      1.00000
     22     -17.1613      1.00000
     23     -17.0558      1.00000
     24     -17.0006      1.00000
     25     -16.9392      1.00000
     26     -16.9165      1.00000
     27     -16.9142      1.00000
     28     -16.8904      1.00000
     29     -16.8752      1.00000
     30     -16.8720      1.00000
     31     -16.7719      1.00000
     32     -16.7638      1.00000
     33     -16.7192      1.00000
     34     -16.1524      1.00000
     35     -15.9084      1.00000
     36     -15.7818      1.00000
     37     -15.1344      1.00000
     38     -15.1063      1.00000
     39     -14.9313      1.00000
     40     -14.9033      1.00000
     41     -14.8646      1.00000
     42     -14.7997      1.00000
     43     -14.7233      1.00000
     44     -14.6986      1.00000
     45     -14.6016      1.00000
     46     -14.5979      1.00000
     47     -14.5400      1.00000
     48     -14.5042      1.00000
     49      -3.3191      1.00000
     50      -3.1063      1.00000
     51      -3.0599      1.00000
     52      -2.9389      1.00000
     53      -1.6972      1.00000
     54      -1.6552      1.00000
     55      -1.4372      1.00000
     56      -1.3611      1.00000
     57      -1.3337      1.00000
     58      -1.3092      1.00000
     59      -1.2740      1.00000
     60      -1.1687      1.00000
[...]
    102       9.2184      0.00000
    103       9.3673      0.00000
    104       9.5586      0.00000
    105       9.6130      0.00000
    106       9.9176      0.00000
    107       9.9690      0.00000
    108       9.9952      0.00000
    109      10.0072      0.00000
    110      10.1370      0.00000
    111      10.4421      0.00000
    112      10.5412      0.00000
    113      10.5459      0.00000
    114      10.7034      0.00000
    115      10.7741      0.00000
    116      10.7968      0.00000

[...]

 spin component 2

[...]

 k-point    62 :       0.5000    0.4000    0.5000
  band No.  band energies     occupation
      1     -36.9834      1.00000
      2     -36.9830      1.00000
      3     -36.9795      1.00000
      4     -36.9792      1.00000
      5     -36.7227      1.00000
      6     -36.7221      1.00000
      7     -36.7162      1.00000
      8     -36.7151      1.00000
      9     -17.8820      1.00000
     10     -17.8515      1.00000
     11     -17.8426      1.00000
     12     -17.8146      1.00000
     13     -17.5754      1.00000
     14     -17.5320      1.00000
     15     -17.4433      1.00000
     16     -17.3710      1.00000
     17     -17.3454      1.00000
     18     -17.2514      1.00000
     19     -17.2138      1.00000
     20     -17.1709      1.00000
     21     -17.0735      1.00000
     22     -17.0376      1.00000
     23     -17.0153      1.00000
     24     -16.9661      1.00000
     25     -16.9559      1.00000
     26     -16.9380      1.00000
     27     -16.9363      1.00000
     28     -16.9108      1.00000
     29     -16.9006      1.00000
     30     -16.8661      1.00000
     31     -16.8579      1.00000
     32     -16.8509      1.00000
     33     -15.8821      1.00000
     34     -15.8139      1.00000
     35     -15.7571      1.00000
     36     -15.6905      1.00000
     37     -15.0671      1.00000
     38     -14.9848      1.00000
     39     -14.9797      1.00000
     40     -14.9262      1.00000
     41     -14.9123      1.00000
     42     -14.8981      1.00000
     43     -14.8330      1.00000
     44     -14.8171      1.00000
     45     -14.7434      1.00000
     46     -14.7021      1.00000
     47     -14.6869      1.00000
     48     -14.6454      1.00000
     49      -3.0243      1.00000
     50      -2.9993      1.00000
     51      -2.9205      1.00000
     52      -2.8842      1.00000
     53      -1.6323      1.00000
     54      -1.5408      1.00000
     55      -1.5174      1.00000
     56      -1.4151      1.00000
     57      -1.2686      1.00000
     58      -1.2053      1.00000
     59      -1.0997      1.00000
     60      -1.0860      1.00000
[...]
    102       9.6579      0.00000
    103       9.8600      0.00000
    104       9.8730      0.00000
    105       9.9202      0.00000
    106      10.0477      0.00000
    107      10.2206      0.00000
    108      10.2373      0.00000
    109      10.3481      0.00000
    110      10.4367      0.00000
    111      10.5198      0.00000
    112      10.5602      0.00000
    113      10.6180      0.00000
    114      10.7105      0.00000
    115      10.8202      0.00000
    116      10.8289      0.00000

 soft charge-density along one line, spin component           1
         0         1         2         3         4         5         6         7         8         9
 total charge-density along one line

 soft charge-density along one line, spin component           2
         0         1         2         3         4         5         6         7         8         9
 total charge-density along one line

------------------------ aborting loop because EDIFF is reached ----------------------------------------

 total charge

# of ion       s       p       d       tot
    1        2.026   5.869   0.241   8.135
    2        2.026   5.869   0.241   8.135
    3        2.026   5.869   0.241   8.135
    4        2.026   5.869   0.241   8.135
    5        2.021   5.870   0.222   8.113
    6        2.021   5.870   0.222   8.113
    7        2.021   5.870   0.222   8.113
    8        2.021   5.870   0.222   8.113
    9        0.665   1.040   0.000   1.705
   10        0.665   1.040   0.000   1.705
   11        0.665   1.040   0.000   1.705
   12        0.665   1.040   0.000   1.705
   13        1.568   3.615   0.000   5.183
   14        1.568   3.615   0.000   5.183
   15        1.568   3.615   0.000   5.183
   16        1.568   3.615   0.000   5.183
   17        1.564   3.599   0.000   5.163
   18        1.564   3.599   0.000   5.163
   19        1.564   3.599   0.000   5.163
   20        1.564   3.599   0.000   5.163
   21        1.563   3.595   0.000   5.158
   22        1.563   3.595   0.000   5.158
   23        1.563   3.595   0.000   5.158
   24        1.563   3.595   0.000   5.158
   25        1.564   3.590   0.000   5.153
   26        1.564   3.590   0.000   5.153
   27        1.564   3.590   0.000   5.153
   28        1.564   3.590   0.000   5.153
tot         43.884 108.709   1.850 154.444

 magnetization (x)

[...]

  FORCE on cell =-STRESS in cart. coord.  units (eV):
  Direction    XX          YY          ZZ          XY          YZ          ZX
  Alpha Z   793.63313   793.63313   793.63313
  Ewald   -4137.68936 -3732.73144 -4123.33622    -0.00002     0.00003  -118.23870
  Hartree  1087.90173  1292.63339  1108.68637     0.00001    -0.00001  -102.90735
  E(xc)    -947.42877  -947.79180  -947.43781     0.00000    -0.00000    -0.31896
  Local     167.55078  -434.79651   132.53524     0.00001    -0.00002   225.04108
  n-local  -539.52114  -534.18897  -539.93276    -0.00000     0.00000     2.86863
  augment   323.41373   323.24330   323.55859     0.00000    -0.00000    -0.53882
  Kinetic  3252.11559  3240.12129  3252.39676     0.00001    -0.00001    -5.92790
  Fock        0.00000     0.00000     0.00000     0.00000     0.00000     0.00000
  Total      -0.02430     0.12238     0.10330    -0.00000    -0.00000    -0.02201
  in kB      -0.11335     0.57083     0.48182    -0.00000    -0.00001    -0.10265

 VOLUME and BASIS-vectors are now :
  energy-cutoff  :      520.00
  volume of cell :      343.49
      direct lattice vectors                 reciprocal lattice vectors
     5.486766856 -0.000000025  0.464997241     0.182339828  0.000000000 -0.000980925
    -0.000000017  6.745852307  0.000000048     0.000000001  0.148239237 -0.000000001
     0.049946883  0.000000054  9.284404810    -0.009132251 -0.000000001  0.107756625

  length of vectors
     5.506435596  6.745852307  9.284539157     0.182342467  0.148239237  0.108142907

 FORCES acting on ions
    electron-ion (+dipol)            ewald-force                    non-local-force                 convergence-correction
   -.158E+02 -.254E+02 -.536E+02   0.161E+02 0.230E+02 0.529E+02   -.342E+00 0.249E+01 0.739E+00   -.244E-05 0.206E-03 -.634E-04
   -.158E+02 0.254E+02 -.536E+02   0.161E+02 -.230E+02 0.529E+02   -.342E+00 -.249E+01 0.739E+00   -.611E-05 -.201E-03 -.584E-04
   0.158E+02 0.255E+02 0.536E+02   -.161E+02 -.230E+02 -.529E+02   0.344E+00 -.248E+01 -.738E+00   0.576E-04 -.183E-03 0.354E-04
   0.158E+02 -.255E+02 0.536E+02   -.161E+02 0.230E+02 -.529E+02   0.344E+00 0.248E+01 -.738E+00   0.640E-04 0.179E-03 0.359E-04
   -.625E+01 0.297E+01 0.731E+01   0.696E+01 -.294E+01 -.778E+01   -.696E+00 -.319E-01 0.471E+00   0.484E-04 0.252E-04 -.246E-03
   -.625E+01 -.297E+01 0.731E+01   0.696E+01 0.294E+01 -.778E+01   -.696E+00 0.319E-01 0.471E+00   0.591E-04 -.284E-04 -.269E-03
   0.625E+01 -.297E+01 -.731E+01   -.695E+01 0.294E+01 0.777E+01   0.696E+00 0.314E-01 -.471E+00   -.634E-04 -.362E-04 0.247E-03
   0.625E+01 0.297E+01 -.731E+01   -.695E+01 -.294E+01 0.777E+01   0.696E+00 -.314E-01 -.471E+00   -.746E-04 0.342E-04 0.259E-03
   -.115E+02 -.527E+01 -.211E+02   0.109E+02 0.649E+01 0.205E+02   0.607E+00 -.115E+01 0.532E+00   -.273E-04 -.385E-04 -.117E-04
   -.115E+02 0.527E+01 -.211E+02   0.109E+02 -.649E+01 0.205E+02   0.607E+00 0.115E+01 0.532E+00   -.243E-04 0.399E-04 -.904E-05
   0.115E+02 0.527E+01 0.211E+02   -.109E+02 -.648E+01 -.205E+02   -.607E+00 0.115E+01 -.532E+00   0.281E-04 0.374E-04 0.104E-04
   0.115E+02 -.527E+01 0.211E+02   -.109E+02 0.648E+01 -.205E+02   -.607E+00 -.115E+01 -.532E+00   0.240E-04 -.363E-04 0.110E-04
   -.319E+02 -.270E+02 -.366E+02   0.285E+02 0.506E+02 0.348E+02   0.348E+01 -.236E+02 0.177E+01   -.181E-03 0.403E-03 -.547E-04
   -.319E+02 0.270E+02 -.366E+02   0.285E+02 -.506E+02 0.348E+02   0.348E+01 0.236E+02 0.177E+01   -.179E-03 -.405E-03 -.487E-04
   0.319E+02 0.270E+02 0.366E+02   -.285E+02 -.506E+02 -.348E+02   -.348E+01 0.236E+02 -.177E+01   0.185E-03 -.406E-03 0.588E-04
   0.319E+02 -.270E+02 0.366E+02   -.285E+02 0.506E+02 -.348E+02   -.348E+01 -.236E+02 -.177E+01   0.182E-03 0.409E-03 0.509E-04
   0.400E+01 0.780E+01 -.199E+02   0.122E+02 -.118E+02 0.352E+02   -.162E+02 0.403E+01 -.154E+02   0.440E-03 -.149E-03 0.307E-03
   0.400E+01 -.780E+01 -.199E+02   0.122E+02 0.118E+02 0.352E+02   -.162E+02 -.403E+01 -.154E+02   0.443E-03 0.149E-03 0.310E-03
   -.401E+01 -.780E+01 0.199E+02   -.121E+02 0.118E+02 -.352E+02   0.162E+02 -.403E+01 0.154E+02   -.440E-03 0.157E-03 -.300E-03
   -.401E+01 0.780E+01 0.199E+02   -.121E+02 -.118E+02 -.352E+02   0.162E+02 0.403E+01 0.154E+02   -.446E-03 -.152E-03 -.306E-03
   0.867E+01 0.200E+02 -.529E+02   -.274E+02 -.302E+02 0.608E+02   0.187E+02 0.102E+02 -.783E+01   -.471E-03 -.214E-03 0.758E-04
   0.867E+01 -.200E+02 -.529E+02   -.274E+02 0.302E+02 0.608E+02   0.187E+02 -.102E+02 -.783E+01   -.470E-03 0.209E-03 0.733E-04
   -.867E+01 -.200E+02 0.529E+02   0.274E+02 0.302E+02 -.608E+02   -.187E+02 -.102E+02 0.783E+01   0.467E-03 0.218E-03 -.860E-04
   -.867E+01 0.200E+02 0.529E+02   0.274E+02 -.302E+02 -.608E+02   -.187E+02 0.102E+02 0.783E+01   0.471E-03 -.219E-03 -.808E-04
   -.184E+02 0.131E+02 0.483E+02   0.234E+02 -.229E+02 -.688E+02   -.494E+01 0.988E+01 0.205E+02   0.396E-04 -.238E-03 -.422E-03
   -.184E+02 -.131E+02 0.483E+02   0.234E+02 0.229E+02 -.688E+02   -.494E+01 -.988E+01 0.205E+02   0.444E-04 0.234E-03 -.424E-03
   0.184E+02 -.131E+02 -.483E+02   -.234E+02 0.229E+02 0.688E+02   0.494E+01 -.988E+01 -.205E+02   -.473E-04 0.235E-03 0.426E-03
   0.184E+02 0.131E+02 -.483E+02   -.234E+02 -.229E+02 0.688E+02   0.494E+01 0.988E+01 -.205E+02   -.505E-04 -.233E-03 0.430E-03
   -.501E-02 0.142E-04 -.167E-02   -.178E-13 0.320E-13 -.284E-13   0.494E-02 -.157E-04 0.168E-02   0.707E-04 -.340E-05 -.503E-04

 POSITION                                       TOTAL-FORCE (eV/Angst)
      1.24328      5.68720      0.74142         0.005511      0.002489      0.002903
      4.01164      4.43158      5.61612         0.005510     -0.002485      0.002903
      4.29342      1.05869      9.00796        -0.005512     -0.002620     -0.002929
      1.52506      2.31423      4.13326        -0.005510      0.002620     -0.002926
      1.22267      3.36238      7.51789         0.009012      0.000514      0.002754
      3.94108      0.01055      3.10819         0.009010     -0.000514      0.002759
      4.31404      3.38347      2.23151        -0.008980     -0.000465     -0.002706
      1.59563      6.73531      6.64121        -0.008979      0.000463     -0.002704
      1.47294      1.89425      0.88371         0.006676      0.010650     -0.005702
      4.24130      1.47868      5.75841         0.006682     -0.010655     -0.005702
      4.06378      4.85160      8.86570        -0.006776     -0.009730      0.005699
      1.29542      5.26718      3.99100        -0.006779      0.009727      0.005704
      1.18256      3.45835      0.65600        -0.006389      0.006663      0.000812
      3.95092      6.66043      5.53070        -0.006393     -0.006686      0.000809
      4.35417      3.28751      9.09340         0.006436     -0.007009     -0.000815
      1.58581      0.08542      4.21870         0.006435      0.006999     -0.000818
      2.63841      1.68428      2.00387        -0.008248     -0.004834      0.007622
      5.40677      1.68865      6.87857        -0.008234      0.004837      0.007637
      2.89828      5.06158      7.74555         0.008487      0.004719     -0.007405
      0.12993      5.05720      2.87084         0.008497     -0.004718     -0.007398
      0.07810      1.12111      1.28270         0.010907      0.015222      0.002893
      2.84645      2.25181      6.15740         0.010884     -0.015208      0.002900
      5.45862      5.62476      8.46669        -0.011288     -0.015446     -0.002736
      2.69026      4.49402      3.59199        -0.011298      0.015451     -0.002733
      1.95839      1.15716      8.76304        -0.008395     -0.007735     -0.005245
      4.67680      2.21576      4.35334        -0.008389      0.007745     -0.005263
      3.57833      5.58869      0.98638         0.008559      0.007540      0.004849
      0.85992      4.53009      5.39608         0.008564     -0.007535      0.004837
    total drift:                                0.000009     -0.000005     -0.000043

  FREE ENERGIE OF THE ION-ELECTRON SYSTEM (eV)
  free  energy   TOTEN  =      -310.18635303 eV

  energy  without entropy=     -310.18635303  energy(sigma->0) =     -310.18635303

 reached required accuracy - stopping structural energy minimisation

 total charge

[...]

 magnetization (x)

# of ion       s       p       d       tot
    1        0.000   0.000   0.000   0.000
    2        0.000   0.000   0.000   0.000
    3        0.000   0.000   0.000   0.000
    4        0.000   0.000   0.000   0.000
    5        0.000  -0.000  -0.000   0.000
    6        0.000  -0.000  -0.000  -0.000
    7        0.000  -0.000  -0.000   0.000
    8        0.000  -0.000   0.000   0.000
    9       -0.000   0.000   0.000   0.000
   10        0.000   0.000   0.000   0.000
   11       -0.000  -0.000   0.000  -0.000
   12       -0.000   0.000   0.000  -0.000
   13        0.000   0.000   0.000   0.000
   14        0.000   0.000   0.000   0.000
   15        0.000   0.000   0.000   0.000
   16        0.000   0.000   0.000   0.000
   17        0.000  -0.000   0.000  -0.000
   18        0.000  -0.000   0.000  -0.000
   19        0.000   0.000   0.000   0.000
   20        0.000   0.000   0.000   0.000
   21        0.000   0.000   0.000   0.000
   22        0.000   0.000   0.000   0.000
   23        0.000   0.000   0.000   0.000
   24        0.000   0.000   0.000   0.000
   25        0.000   0.000   0.000   0.000
   26        0.000   0.000   0.000   0.000
   27        0.000   0.000   0.000   0.000
   28        0.000   0.000   0.000   0.000
tot          0.000   0.000   0.000   0.000