 vasp.6.1.2 22Jul20 (build Apr 14 2021 21:39:43) complex

 executed on             LinuxIFC date 2022.04.20  11:14:11

 INCAR:
 POTCAR:    PAW_PBE Ca_sv 06Sep2000
 POTCAR:    PAW_PBE Co_pv 23Apr2009
 POTCAR:    PAW_PBE S 06Sep2000
 POTCAR:    PAW_PBE O 08Apr2002
 POTCAR:    PAW_PBE Ca_sv 06Sep2000
   VRHFIN =Ca: 3s3p4s

   TITEL  = PAW_PBE Ca_sv 06Sep2000
   POMASS =   40.078; ZVAL   =   10.000    mass and valenz
   ENMAX  =  266.622; ENMIN  =  199.967 eV

 POTCAR:    PAW_PBE Co_pv 23Apr2009
   VRHFIN =Co: 3pd7s1

   TITEL  = PAW_PBE Co_pv 23Apr2009
   POMASS =   58.933; ZVAL   =   15.000    mass and valenz
   ENMAX  =  271.042; ENMIN  =  203.281 eV

 POTCAR:    PAW_PBE S 06Sep2000
   VRHFIN =S : s2p4

   TITEL  = PAW_PBE S 06Sep2000
   POMASS =   32.066; ZVAL   =    6.000    mass and valenz
   ENMAX  =  258.689; ENMIN  =  194.016 eV

 POTCAR:    PAW_PBE O 08Apr2002
   VRHFIN =O: s2p4

   TITEL  = PAW_PBE O 08Apr2002
   POMASS =   16.000; ZVAL   =    6.000    mass and valenz
   ENMAX  =  400.000; ENMIN  =  300.000 eV

 Optimization of the real space projectors (new method)

 maximal supplied QI-value         = 16.25
 optimisation between [QCUT,QGAM] = [ 11.54, 23.24] = [ 37.28,151.24] Ry
 Optimized for a Real-space Cutoff    1.58 Angstroem

   l    n(q)    QCUT    max X(q) W(low)/X(q) W(high)/X(q)  e(spline)
   0     11    11.539    11.817    0.25E-04    0.22E-05    0.26E-07
   0     11    11.539     8.461    0.39E-04    0.49E-05    0.55E-07
   1     11    11.539     3.957    0.21E-05    0.44E-05    0.32E-07
   1     11    11.539     4.314    0.56E-04    0.44E-04    0.19E-06
   2     10    11.539    14.565    0.25E-03    0.21E-04    0.75E-06
   2     10    11.539    14.552    0.23E-03    0.22E-04    0.72E-06
 Optimization of the real space projectors (new method)

[...]

   l    n(q)    QCUT    max X(q) W(low)/X(q) W(high)/X(q)  e(spline)
   0      8    11.508   187.594    0.96E-04    0.18E-03    0.54E-07
   0      8    11.508   164.243    0.96E-04    0.18E-03    0.54E-07
   1      8    11.508    67.533    0.18E-03    0.65E-04    0.94E-07
   1      8    11.508    50.729    0.18E-03    0.63E-04    0.92E-07
 Optimization of the real space projectors (new method)

 maximal supplied QI-value         = 24.76
 optimisation between [QCUT,QGAM] = [ 11.64, 23.27] = [ 37.91,151.63] Ry
 Optimized for a Real-space Cutoff    1.14 Angstroem

   l    n(q)    QCUT    max X(q) W(low)/X(q) W(high)/X(q)  e(spline)
   0      8    11.635    20.381    0.10E-03    0.33E-03    0.24E-06
   0      8    11.635    15.268    0.11E-03    0.35E-03    0.26E-06
   1      7    11.635     5.964    0.24E-03    0.31E-03    0.30E-06
   1      7    11.635     5.382    0.22E-03    0.25E-03    0.26E-06
  PAW_PBE Ca_sv 06Sep2000               :
  PAW_PBE Co_pv 23Apr2009               :
  PAW_PBE S 06Sep2000                   :
  PAW_PBE O 08Apr2002                   :

 POSCAR: Ca2 Co4 S6 O24
  positions in direct lattice
  velocities in cartesian coordinates

 METAGGA = SCAN     LMAXTAU =  6    LMIXTAU =  F

 ion  position               nearest neighbor table
   1  0.498  0.497  0.498-  17 2.35  22 2.35  13 2.37  24 2.37  15 2.38  20 2.39
   2  0.998  0.997  0.998-  14 2.35  21 2.35  18 2.37  19 2.38  16 2.38  23 2.38
   3  0.645  0.647  0.645-  26 2.01  30 2.03  28 2.04  15 2.11  13 2.11  17 2.14
   4  0.145  0.147  0.145-  25 2.02  29 2.02  27 2.04  18 2.11  16 2.12  14 2.13
   5  0.850  0.849  0.851-  36 2.02  34 2.02  32 2.03  19 2.10  23 2.12  21 2.13
   6  0.350  0.349  0.350-  33 2.01  31 2.03  35 2.04  24 2.11  20 2.11  22 2.14
   7  0.952  0.248  0.543-  31 1.45  25 1.45  23 1.48  15 1.49
   8  0.452  0.043  0.748-  32 1.45  26 1.46  22 1.48  18 1.49
   9  0.543  0.952  0.247-  27 1.45  33 1.46  17 1.48  19 1.49
  10  0.748  0.451  0.044-  28 1.45  34 1.45  14 1.48  24 1.49
  11  0.248  0.544  0.951-  35 1.45  29 1.45  21 1.48  13 1.49
  12  0.043  0.747  0.452-  30 1.45  36 1.45  16 1.48  20 1.49
  13  0.407  0.565  0.768-  11 1.49   3 2.11   1 2.37
  14  0.906  0.267  0.064-  10 1.48   4 2.13   2 2.35
  15  0.769  0.408  0.563-   7 1.49   3 2.11   1 2.38
  16  0.064  0.907  0.269-  12 1.48   4 2.12   2 2.38
  17  0.562  0.768  0.406-   9 1.48   3 2.14   1 2.35
  18  0.268  0.063  0.907-   8 1.49   4 2.11   2 2.37
  19  0.727  0.932  0.087-   9 1.49   5 2.10   2 2.38
  20  0.226  0.587  0.433-  12 1.49   6 2.11   1 2.39
  21  0.089  0.728  0.932-  11 1.48   5 2.13   2 2.35
  22  0.433  0.227  0.589-   8 1.48   6 2.14   1 2.35
  23  0.932  0.088  0.726-   7 1.48   5 2.12   2 2.38
  24  0.588  0.431  0.227-  10 1.49   6 2.11   1 2.37
  25  0.987  0.195  0.393-   7 1.45   4 2.02
  26  0.485  0.894  0.694-   8 1.46   3 2.01
  27  0.394  0.988  0.194-   9 1.45   4 2.04
  28  0.696  0.487  0.894-  10 1.45   3 2.04
  29  0.195  0.395  0.982-  11 1.45   4 2.02
  30  0.894  0.694  0.484-  12 1.45   3 2.03
  31  0.101  0.301  0.510-   7 1.45   6 2.03
  32  0.601  0.007  0.801-   8 1.45   5 2.03
  33  0.510  0.101  0.301-   9 1.46   6 2.01
  34  0.800  0.600  0.013-  10 1.45   5 2.02
  35  0.299  0.508  0.102-  11 1.45   6 2.04
  36  0.007  0.800  0.602-  12 1.45   5 2.02

IMPORTANT INFORMATION: All symmetrisations will be switched off!
NOSYMM: (Re-)initialisation of all symmetry stuff for point group C_1.

                                     Primitive cell

  volume of cell :     465.7001

  direct lattice vectors                    reciprocal lattice vectors
     7.586959048  0.048826034  4.492159230     0.133192933 -0.047605192 -0.001826506
     2.586276703  7.064257078  4.477657138    -0.000682025  0.142055950 -0.000392135
     0.129526909  0.024903477  8.796320441    -0.067672613 -0.048000495  0.114816281

  length of vectors
     8.817245949  8.754539890  8.797309288     0.141456523  0.142058129  0.141655952

  position of ions in fractional coordinates (direct lattice)
     0.498076280  0.497226079  0.497705319
     0.997733048  0.997369435  0.997863814
     0.644710171  0.646525685  0.645168580
     0.145035776  0.146833243  0.144568646
     0.849703587  0.849126828  0.850728180
     0.350476058  0.349153379  0.349865154
     0.952479759  0.247914909  0.543133839
     0.452040553  0.043326130  0.748043994
     0.542929322  0.951829610  0.247100659
     0.747523286  0.451107253  0.043998435
     0.247598927  0.544005675  0.950955506
     0.042726315  0.747146913  0.452108881
     0.407425593  0.564637227  0.767543708
     0.906384834  0.267430568  0.063625230
     0.769272122  0.407830659  0.562663076
     0.063816818  0.906641929  0.269060399
     0.562301150  0.768404638  0.405819377
     0.268242022  0.063269035  0.907462476
     0.726576115  0.932273295  0.087321435
     0.225818015  0.587072271  0.433331727
     0.088604052  0.727505360  0.931687932
     0.433353935  0.226515108  0.588985995
     0.932119829  0.088327908  0.726116965
     0.587638244  0.430763806  0.227449430
     0.987262172  0.194657524  0.393411208
     0.485301382  0.894079251  0.694043687
     0.393984945  0.987731982  0.194152898
     0.696160736  0.486866054  0.893708403
     0.195334474  0.394921592  0.981836606
     0.894317961  0.694387246  0.484414960
     0.101220711  0.300824794  0.509728085
     0.600768612  0.007323489  0.801324838
     0.509769044  0.100990447  0.301098042
     0.800001505  0.600197137  0.012591294
     0.298859457  0.507714523  0.101520466
     0.006833192  0.800469018  0.602260759

  ion indices of the primitive-cell ions
   primitive index   ion index
                 1           1
                 2           2
                 3           3
                 4           4
                 5           5
                 6           6
                 7           7
                 8           8
                 9           9
                10          10
                11          11
                12          12
                13          13
                14          14
                15          15
                16          16
                17          17
                18          18
                19          19
                20          20
                21          21
                22          22
                23          23
                24          24
                25          25
                26          26
                27          27
                28          28
                29          29
                30          30
                31          31
                32          32
                33          33
                34          34
                35          35
                36          36

 KPOINTS: Fully automatic kpoint scheme

Automatic generation of k-mesh.
 generate k-points for:    5    5    5
Space group operators:
 irot       det(A)        alpha          n_x          n_y          n_z        tau_x        tau_y        tau_z
    1     1.000000     0.000000     1.000000     0.000000     0.000000     0.000000     0.000000     0.000000

 Subroutine IBZKPT returns following result:

 Found     63 irreducible k-points:

 Following reciprocal coordinates:
            Coordinates               Weight
  0.000000  0.000000  0.000000      1.000000
  0.200000 -0.000000  0.000000      2.000000
  0.400000 -0.000000 -0.000000      2.000000
 -0.000000  0.200000 -0.000000      2.000000
  0.200000  0.200000 -0.000000      2.000000
  0.400000  0.200000 -0.000000      2.000000
 -0.400000  0.200000 -0.000000      2.000000
 -0.200000  0.200000 -0.000000      2.000000
  0.000000  0.400000 -0.000000      2.000000
  0.200000  0.400000  0.000000      2.000000
  0.400000  0.400000  0.000000      2.000000
 -0.400000  0.400000  0.000000      2.000000
 -0.200000  0.400000  0.000000      2.000000
  0.000000 -0.000000  0.200000      2.000000
  0.200000 -0.000000  0.200000      2.000000
  0.400000 -0.000000  0.200000      2.000000
 -0.400000  0.000000  0.200000      2.000000
 -0.200000  0.000000  0.200000      2.000000
  0.000000  0.200000  0.200000      2.000000
  0.200000  0.200000  0.200000      2.000000
  0.400000  0.200000  0.200000      2.000000
 -0.400000  0.200000  0.200000      2.000000
 -0.200000  0.200000  0.200000      2.000000
  0.000000  0.400000  0.200000      2.000000
  0.200000  0.400000  0.200000      2.000000
  0.400000  0.400000  0.200000      2.000000
 -0.400000  0.400000  0.200000      2.000000
 -0.200000  0.400000  0.200000      2.000000
 -0.000000 -0.400000  0.200000      2.000000
  0.200000 -0.400000  0.200000      2.000000
  0.400000 -0.400000  0.200000      2.000000
 -0.400000 -0.400000  0.200000      2.000000
 -0.200000 -0.400000  0.200000      2.000000
  0.000000 -0.200000  0.200000      2.000000
  0.200000 -0.200000  0.200000      2.000000
  0.400000 -0.200000  0.200000      2.000000
 -0.400000 -0.200000  0.200000      2.000000
 -0.200000 -0.200000  0.200000      2.000000
  0.000000  0.000000  0.400000      2.000000
  0.200000 -0.000000  0.400000      2.000000
  0.400000 -0.000000  0.400000      2.000000
 -0.400000  0.000000  0.400000      2.000000
 -0.200000  0.000000  0.400000      2.000000
  0.000000  0.200000  0.400000      2.000000
  0.200000  0.200000  0.400000      2.000000
  0.400000  0.200000  0.400000      2.000000
[...]
     31     -19.4540      1.00000
     32     -19.3857      1.00000
     33     -19.3793      1.00000
     34     -19.3622      1.00000
     35     -19.2970      1.00000
     36     -19.2945      1.00000
     37     -19.2605      1.00000
     38     -19.2503      1.00000
     39     -18.8770      1.00000
     40     -18.8592      1.00000
     41     -18.7700      1.00000
     42     -18.7284      1.00000
     43     -18.7025      1.00000
     44     -18.5296      1.00000
     45      -9.6133      1.00000
     46      -8.6940      1.00000
     47      -8.4956      1.00000
     48      -8.4793      1.00000
     49      -8.3842      1.00000
     50      -8.3606      1.00000
     51      -7.1011      1.00000
     52      -6.8906      1.00000
     53      -6.4874      1.00000
     54      -6.2354      1.00000
     55      -6.2158      1.00000
     56      -6.1839      1.00000
     57      -6.1736      1.00000
     58      -6.1526      1.00000
     59      -6.0523      1.00000
     60      -6.0315      1.00000
[...]
    162      10.8475      0.00000
    163      10.9574      0.00000
    164      11.1165      0.00000
    165      11.1472      0.00000
    166      11.1679      0.00000
    167      11.1956      0.00000
    168      11.5587      0.00000
    169      11.5919      0.00000
    170      11.6371      0.00000
    171      11.6942      0.00000
    172      11.7188      0.00000
    173      11.9510      0.00000
    174      12.0375      0.00000
    175      12.1632      0.00000
    176      12.4732      0.00000

[...]

 spin component 2

[...]

 k-point    63 :      -0.2000   -0.2000    0.4000
  band No.  band energies     occupation
      1     -55.3976      1.00000
      2     -55.3973      1.00000
      3     -55.3827      1.00000
      4     -55.3816      1.00000
      5     -55.3064      1.00000
      6     -55.3058      1.00000
      7     -55.2987      1.00000
      8     -55.2928      1.00000
      9     -55.2618      1.00000
     10     -55.2616      1.00000
     11     -55.2616      1.00000
     12     -55.2511      1.00000
     13     -39.0256      1.00000
     14     -39.0228      1.00000
     15     -23.6758      1.00000
     16     -23.6671      1.00000
     17     -23.6456      1.00000
     18     -23.6180      1.00000
     19     -23.6157      1.00000
     20     -23.6024      1.00000
     21     -19.9141      1.00000
     22     -19.8957      1.00000
     23     -19.6537      1.00000
     24     -19.6370      1.00000
     25     -19.6118      1.00000
     26     -19.5819      1.00000
     27     -19.4805      1.00000
     28     -19.4753      1.00000
     29     -19.4394      1.00000
     30     -19.4290      1.00000
     31     -19.3948      1.00000
     32     -19.3882      1.00000
     33     -19.3060      1.00000
     34     -19.2888      1.00000
     35     -19.2081      1.00000
     36     -19.2034      1.00000
     37     -19.1920      1.00000
     38     -19.1697      1.00000
     39     -18.8086      1.00000
     40     -18.7836      1.00000
     41     -18.7423      1.00000
     42     -18.7338      1.00000
     43     -18.5887      1.00000
     44     -18.5717      1.00000
     45      -8.9866      1.00000
     46      -8.7689      1.00000
     47      -8.6598      1.00000
     48      -8.4584      1.00000
     49      -8.3519      1.00000
     50      -8.3146      1.00000
     51      -6.7105      1.00000
     52      -6.5252      1.00000
     53      -6.4827      1.00000
     54      -6.2410      1.00000
     55      -6.1207      1.00000
     56      -6.0303      1.00000
     57      -5.9593      1.00000
     58      -5.8844      1.00000
     59      -5.8792      1.00000
     60      -5.8213      1.00000
[...]
    162      10.9729      0.00000
    163      11.1357      0.00000
    164      11.1671      0.00000
    165      11.2532      0.00000
    166      11.2984      0.00000
    167      11.5399      0.00000
    168      11.5904      0.00000
    169      11.7743      0.00000
    170      11.8074      0.00000
    171      11.8888      0.00000
    172      11.9592      0.00000
    173      12.0522      0.00000
    174      12.2260      0.00000
    175      12.3065      0.00000
    176      12.4831      0.00000

 soft charge-density along one line, spin component           1
         0         1         2         3         4         5         6         7         8         9
 total charge-density along one line

 soft charge-density along one line, spin component           2
         0         1         2         3         4         5         6         7         8         9
 total charge-density along one line

------------------------ aborting loop because EDIFF is reached ----------------------------------------

 total charge

# of ion       s       p       d       tot
    1        2.017   5.867   0.185   8.069
    2        2.017   5.867   0.185   8.069
    3        0.251   6.283   7.071  13.605
    4        0.251   6.283   7.071  13.604
    5        0.251   6.283   7.071  13.605
    6        0.251   6.283   7.071  13.605
    7        1.220   2.296   0.000   3.516
    8        1.220   2.297   0.000   3.517
    9        1.220   2.297   0.000   3.517
   10        1.220   2.297   0.000   3.517
   11        1.220   2.297   0.000   3.517
   12        1.220   2.295   0.000   3.516
   13        1.582   3.645   0.000   5.227
   14        1.582   3.647   0.000   5.229
   15        1.582   3.643   0.000   5.225
   16        1.583   3.644   0.000   5.226
   17        1.583   3.647   0.000   5.229
   18        1.582   3.644   0.000   5.227
   19        1.582   3.644   0.000   5.226
   20        1.582   3.643   0.000   5.225
   21        1.582   3.647   0.000   5.229
   22        1.583   3.647   0.000   5.230
   23        1.582   3.644   0.000   5.226
   24        1.582   3.645   0.000   5.227
   25        1.585   3.648   0.000   5.233
   26        1.585   3.648   0.000   5.233
   27        1.585   3.651   0.000   5.236
   28        1.585   3.650   0.000   5.235
   29        1.585   3.647   0.000   5.232
   30        1.585   3.647   0.000   5.232
   31        1.585   3.648   0.000   5.233
   32        1.585   3.652   0.000   5.237
   33        1.585   3.648   0.000   5.233
   34        1.585   3.647   0.000   5.232
   35        1.585   3.651   0.000   5.236
   36        1.585   3.649   0.000   5.233
tot         50.365 138.169  28.655 217.190

 magnetization (x)

[...]

  FORCE on cell =-STRESS in cart. coord.  units (eV):
  Direction    XX          YY          ZZ          XY          YZ          ZX
  Alpha Z   771.53584   771.53584   771.53584
  Ewald   -5042.21981 -5223.45301 -4274.49479   266.06477   503.30011   647.97283
  Hartree  3146.45462  3021.85502  3595.62911   154.97256   294.00581   386.20812
  E(xc)   -1433.70933 -1433.88173 -1434.09108    -0.13589    -0.25319    -0.24732
  Local   -2281.53385 -1956.49581 -3480.19057  -413.03078  -778.06390 -1025.74343
  n-local  -407.42331  -404.66640  -403.82307     1.47760     2.93851     1.91213
  augment   768.18994   751.28919   769.22371    -1.45056    -6.00443     5.59977
  Kinetic  4478.69561  4473.79915  4456.32012    -7.87816   -15.92569   -15.67679
  Fock        0.00000     0.00000     0.00000     0.00000     0.00000     0.00000
  Total      -0.01028    -0.01775     0.10928     0.01954    -0.00280     0.02530
  in kB      -0.03537    -0.06107     0.37595     0.06722    -0.00962     0.08703

 VOLUME and BASIS-vectors are now :
  energy-cutoff  :      520.00
  volume of cell :      465.70
      direct lattice vectors                 reciprocal lattice vectors
     7.586959048  0.048826034  4.492159230     0.133192933 -0.047605192 -0.001826506
     2.586276703  7.064257078  4.477657138    -0.000682025  0.142055950 -0.000392135
     0.129526909  0.024903477  8.796320441    -0.067672613 -0.048000495  0.114816281

  length of vectors
     8.817245949  8.754539890  8.797309288     0.141456523  0.142058129  0.141655952

 FORCES acting on ions:
    Electron-Ion                     Ewald-Force                    Non-Local-Force
   0.354E+00 -.788E-01 0.807E+00   -.352E+00 0.831E-01 -.799E+00   0.147E-02 -.492E-02 -.953E-02
   0.395E+00 0.693E+00 0.257E+00   -.373E+00 -.666E+00 -.258E+00   -.241E-01 -.295E-01 0.564E-02
   -.231E+02 -.124E+02 -.393E+02   0.245E+02 0.132E+02 0.416E+02   -.133E+01 -.775E+00 -.227E+01
   -.200E+02 -.137E+02 -.403E+02   0.214E+02 0.143E+02 0.426E+02   -.139E+01 -.586E+00 -.222E+01
   0.198E+02 0.140E+02 0.404E+02   -.213E+02 -.148E+02 -.425E+02   0.145E+01 0.803E+00 0.215E+01
   0.226E+02 0.120E+02 0.390E+02   -.238E+02 -.127E+02 -.412E+02   0.120E+01 0.679E+00 0.223E+01
   0.674E+01 0.596E+00 -.331E+01   -.413E+01 -.641E+00 0.201E+01   -.265E+01 0.463E-01 0.134E+01
   0.402E+01 -.560E+01 -.636E+00   -.209E+01 0.345E+01 0.907E+00   -.198E+01 0.220E+01 -.265E+00
   -.338E+01 0.584E+01 0.696E+00   0.143E+01 -.366E+01 -.899E+00   0.200E+01 -.222E+01 0.202E+00
   0.335E+01 0.560E+01 -.166E+01   -.255E+01 -.321E+01 -.398E-02   -.826E+00 -.243E+01 0.171E+01
   -.345E+01 -.589E+01 0.178E+01   0.266E+01 0.357E+01 -.954E-01   0.807E+00 0.237E+01 -.172E+01
   -.718E+01 -.723E+00 0.295E+01   0.458E+01 0.754E+00 -.166E+01   0.264E+01 -.314E-01 -.132E+01
   0.320E+02 0.278E+02 0.973E+02   0.215E+00 -.242E+02 -.120E+03   -.322E+02 -.359E+01 0.227E+02
   0.407E+02 0.589E+02 0.800E+02   -.218E+02 -.939E+02 -.794E+02   -.190E+02 0.351E+02 -.654E+00
   0.680E+02 0.217E+02 0.843E+02   -.948E+02 0.753E+01 -.841E+02   0.268E+02 -.293E+02 -.240E+00
   0.350E+02 0.198E+02 0.988E+02   -.209E+02 0.981E+01 -.122E+03   -.141E+02 -.296E+02 0.228E+02
   0.511E+02 0.599E+02 0.731E+02   -.600E+02 -.952E+02 -.562E+02   0.893E+01 0.353E+02 -.169E+02
   0.709E+02 0.307E+02 0.790E+02   -.107E+03 -.277E+02 -.627E+02   0.360E+02 -.309E+01 -.163E+02
   -.702E+02 -.316E+02 -.800E+02   0.106E+03 0.287E+02 0.638E+02   -.359E+02 0.292E+01 0.162E+02
   -.681E+02 -.215E+02 -.863E+02   0.948E+02 -.785E+01 0.863E+02   -.267E+02 0.294E+02 -.188E-01
   -.402E+02 -.586E+02 -.800E+02   0.212E+02 0.936E+02 0.793E+02   0.191E+02 -.351E+02 0.641E+00
   -.516E+02 -.593E+02 -.725E+02   0.607E+02 0.946E+02 0.556E+02   -.911E+01 -.353E+02 0.169E+02
   -.371E+02 -.192E+02 -.995E+02   0.233E+02 -.105E+02 0.122E+03   0.138E+02 0.296E+02 -.229E+02
   -.323E+02 -.290E+02 -.974E+02   0.236E+00 0.255E+02 0.120E+03   0.321E+02 0.349E+01 -.228E+02
   0.102E+03 -.143E+01 0.366E+02   -.105E+03 -.112E+02 -.789E+02   0.287E+01 0.126E+02 0.424E+02
   0.996E+02 -.206E+02 0.455E+02   -.108E+03 -.738E+01 -.782E+02   0.888E+01 0.281E+02 0.328E+02
   0.222E+02 0.925E+02 0.489E+02   -.530E+02 -.896E+02 -.815E+02   0.308E+02 -.289E+01 0.326E+02
   0.312E+02 0.919E+02 0.439E+02   -.437E+02 -.890E+02 -.869E+02   0.125E+02 -.295E+01 0.430E+02
   -.972E+01 -.174E+02 0.112E+03   -.139E+02 -.110E+02 -.137E+03   0.236E+02 0.285E+02 0.246E+02
   -.161E+02 -.365E+01 0.111E+03   -.193E+02 -.896E+01 -.135E+03   0.354E+02 0.126E+02 0.242E+02
   0.160E+02 0.369E+01 -.109E+03   0.196E+02 0.895E+01 0.133E+03   -.355E+02 -.126E+02 -.239E+02
   -.213E+02 -.916E+02 -.491E+02   0.520E+02 0.886E+02 0.817E+02   -.308E+02 0.294E+01 -.326E+02
   -.989E+02 0.198E+02 -.461E+02   0.108E+03 0.837E+01 0.788E+02   -.884E+01 -.282E+02 -.328E+02
   0.864E+01 0.164E+02 -.111E+03   0.152E+02 0.122E+02 0.135E+03   -.238E+02 -.286E+02 -.244E+02
   -.309E+02 -.913E+02 -.435E+02   0.433E+02 0.881E+02 0.864E+02   -.124E+02 0.316E+01 -.430E+02
   -.101E+03 0.185E+01 -.359E+02   0.103E+03 0.107E+02 0.782E+02   -.253E+01 -.126E+02 -.423E+02
   0.245E+00 0.102E+00 0.209E+00   0.000E+00 0.131E-12 0.412E-12   -.232E+00 -.499E-01 -.133E+00

 POSITION                                       TOTAL-FORCE (eV/Angst)
      5.12931      3.54925      8.84182         0.002833     -0.002033     -0.003117
     10.27848      7.11924     17.72538        -0.002438     -0.004034      0.002133
      6.64705      4.61477     11.46617         0.023859      0.005438      0.008004
      1.49886      1.04795      2.58066        -0.004694      0.017137      0.004858
      8.75294      6.06112     15.10238         0.002140     -0.008742     -0.015315
      3.60737      2.49233      6.21531        -0.011427     -0.017520      0.002017
      7.93795      1.81137     10.16635         0.012039     -0.001838      0.003990
      3.63856      0.34677      8.80467        -0.001550      0.004270      0.008151
      6.61288      6.75663      8.87447         0.000923     -0.003661     -0.006938
      6.84382      3.22433      5.76492        -0.005385      0.001691      0.007637
      3.40865      3.87877     11.91303         0.001727     -0.005291     -0.010478
      2.31505      5.29138      7.51430        -0.016026     -0.000423     -0.000216
      4.65085      4.02775     11.11003        -0.001766     -0.001818      0.005898
      7.57660      1.93504      5.82876        -0.018432      0.019914     -0.000292
      6.96408      2.93259     10.23118         0.001038     -0.005233     -0.013391
      2.86385      6.41457      6.71305        -0.003806      0.003092      0.001676
      6.30603      5.46577      9.53632         0.011044      0.006827     -0.002016
      2.31631      0.48264      9.47061        -0.006763     -0.000499     -0.021585
      7.93493      6.62347      8.20640         0.009785      0.003164      0.014845
      3.28773      4.16905      7.45484         0.003953      0.007314      0.014521
      2.67444      5.16681     11.85097         0.020555     -0.017653     -0.000976
      3.94996      1.63599      8.14186        -0.013594     -0.011426      0.000932
      7.39445      0.68757     10.96989         0.002300     -0.005572      0.003674
      5.60192      3.07738      6.56930        -0.001226      0.002891     -0.006341
      8.04471      1.43311      8.76712        -0.010317      0.000132      0.006417
      6.08420      6.35699     12.28846        -0.018485      0.009762     -0.000254
      5.56884      7.00166      7.90040         0.005893      0.008588      0.010559
      6.65667      3.49559     13.16863         0.001330     -0.000207      0.020835
      2.63055      2.82382     11.28235        -0.012523     -0.011958     -0.003666
      8.64378      4.96106     11.38772        -0.014285     -0.002218      0.006998
      1.61200      2.14274      6.28542         0.010974      0.002174     -0.004586
      4.68074      0.10102      9.78025        -0.007944     -0.005607     -0.010163
      4.16779      0.74581      5.39072         0.015649     -0.005303      0.000514
      7.62349      4.27932      6.39197         0.007923      0.006131     -0.000445
      3.59367      3.60375      4.50890         0.002667      0.008112     -0.021301
      2.20009      5.67005      8.91260         0.014031      0.004397     -0.002580
    total drift:                                0.013279      0.051943      0.076384

  FREE ENERGIE OF THE ION-ELECTRON SYSTEM (eV)
  free  energy   TOTEN  =      -358.87353337 eV

  energy  without entropy=     -358.87353337  energy(sigma->0) =     -358.87353337

 reached required accuracy - stopping structural energy minimisation

 total charge

[...]

 magnetization (x)

# of ion       s       p       d       tot
    1        0.000   0.000  -0.000   0.000
    2        0.000   0.000  -0.000   0.000
    3        0.004   0.009   2.713   2.725
    4        0.004   0.009   2.714   2.726
    5        0.004   0.009   2.713   2.726
    6        0.004   0.009   2.713   2.726
    7        0.003   0.009   0.000   0.012
    8        0.004   0.009   0.000   0.013
    9        0.004   0.009   0.000   0.013
   10        0.004   0.009   0.000   0.013
   11        0.004   0.009   0.000   0.013
   12        0.003   0.008   0.000   0.012
   13        0.005   0.029   0.000   0.034
   14        0.006   0.025   0.000   0.031
   15        0.005   0.031   0.000   0.036
   16        0.005   0.030   0.000   0.035
   17        0.006   0.026   0.000   0.031
   18        0.005   0.030   0.000   0.035
   19        0.005   0.030   0.000   0.036
   20        0.005   0.031   0.000   0.036
   21        0.006   0.025   0.000   0.031
   22        0.006   0.026   0.000   0.031
   23        0.005   0.030   0.000   0.035
   24        0.005   0.029   0.000   0.034
   25        0.007   0.027   0.000   0.034
   26        0.006   0.031   0.000   0.038
   27        0.007   0.021   0.000   0.028
   28        0.007   0.021   0.000   0.028
   29        0.006   0.029   0.000   0.035
   30        0.007   0.026   0.000   0.032
   31        0.007   0.025   0.000   0.032
   32        0.007   0.021   0.000   0.028
   33        0.006   0.031   0.000   0.037
   34        0.007   0.028   0.000   0.034
   35        0.007   0.021   0.000   0.028
   36        0.007   0.028   0.000   0.034
tot          0.180   0.739  10.853  11.772