 vasp.6.1.2 22Jul20 (build Feb 09 2022 12:23:39) complex

 executed on             LinuxIFC date 2022.03.14  23:02:27

 INCAR:
 POTCAR:    PAW_PBE Ca_sv 06Sep2000
 POTCAR:    PAW_PBE V_pv 07Sep2000
 POTCAR:    PAW_PBE P 06Sep2000
 POTCAR:    PAW_PBE O 08Apr2002
 POTCAR:    PAW_PBE Ca_sv 06Sep2000
   VRHFIN =Ca: 3s3p4s

   TITEL  = PAW_PBE Ca_sv 06Sep2000
   POMASS =   40.078; ZVAL   =   10.000    mass and valenz
   ENMAX  =  266.622; ENMIN  =  199.967 eV

   TITEL  = PAW_PBE V_pv 07Sep2000
   POMASS =   50.941; ZVAL   =   11.000    mass and valenz
   ENMAX  =  263.673; ENMIN  =  197.755 eV

   TITEL  = PAW_PBE P 06Sep2000
   POMASS =   30.974; ZVAL   =    5.000    mass and valenz
   ENMAX  =  255.040; ENMIN  =  191.280 eV

   TITEL  = PAW_PBE O 08Apr2002
   POMASS =   16.000; ZVAL   =    6.000    mass and valenz
   ENMAX  =  400.000; ENMIN  =  300.000 eV

 Optimization of the real space projectors (new method)

 maximal supplied QI-value         = 16.25
 optimisation between [QCUT,QGAM] = [ 11.54, 23.24] = [ 37.28,151.24] Ry
 Optimized for a Real-space Cutoff    1.58 Angstroem

   l    n(q)    QCUT    max X(q) W(low)/X(q) W(high)/X(q)  e(spline)
   0     11    11.539    11.817    0.25E-04    0.22E-05    0.26E-07
   0     11    11.539     8.461    0.39E-04    0.49E-05    0.55E-07
   1     11    11.539     3.957    0.21E-05    0.44E-05    0.32E-07
   1     11    11.539     4.314    0.56E-04    0.44E-04    0.19E-06
   2     10    11.539    14.565    0.25E-03    0.21E-04    0.75E-06
   2     10    11.539    14.552    0.23E-03    0.22E-04    0.72E-06
 Optimization of the real space projectors (new method)

[...]

   l    n(q)    QCUT    max X(q) W(low)/X(q) W(high)/X(q)  e(spline)
   0      8    11.508   160.924    0.96E-04    0.17E-03    0.52E-07
   0      8    11.508   130.086    0.95E-04    0.17E-03    0.51E-07
   1      8    11.508    74.434    0.16E-03    0.74E-04    0.91E-07
   1      8    11.508    49.120    0.16E-03    0.71E-04    0.89E-07
 Optimization of the real space projectors (new method)

 maximal supplied QI-value         = 24.76
 optimisation between [QCUT,QGAM] = [ 11.64, 23.27] = [ 37.91,151.63] Ry
 Optimized for a Real-space Cutoff    1.14 Angstroem

   l    n(q)    QCUT    max X(q) W(low)/X(q) W(high)/X(q)  e(spline)
   0      8    11.635    20.381    0.10E-03    0.33E-03    0.24E-06
   0      8    11.635    15.268    0.11E-03    0.35E-03    0.26E-06
   1      7    11.635     5.964    0.24E-03    0.31E-03    0.30E-06
   1      7    11.635     5.382    0.22E-03    0.25E-03    0.26E-06
  PAW_PBE Ca_sv 06Sep2000               :
  PAW_PBE V_pv 07Sep2000                :
  PAW_PBE P 06Sep2000                   :
  PAW_PBE O 08Apr2002                   :

 POSCAR: Ca4 V16 P24 O96
  positions in direct lattice
  velocities in cartesian coordinates

 METAGGA = SCAN     LMAXTAU =  6    LMIXTAU =  F

 ion  position               nearest neighbor table
   1  0.507  0.493  0.493-  45 2.38  81 2.39  73 2.40  61 2.43  89 2.44  53 2.44
   2  0.507  0.993  0.993-  46 2.38  82 2.39  74 2.40  62 2.43  90 2.44  54 2.44
   3  0.007  0.993  0.493-  47 2.38  83 2.39  75 2.40  63 2.43  55 2.44  91 2.44
   4  0.007  0.493  0.993-  48 2.38  84 2.39  76 2.40  64 2.43  56 2.44  92 2.44
   5  0.644  0.644  0.643- 113 1.82  97 1.88 105 1.88  45 1.94  61 1.97  53 2.01
   6  0.644  0.144  0.143- 114 1.82  98 1.88 106 1.88  46 1.94  62 1.97  54 2.01
   7  0.144  0.144  0.643- 115 1.82  99 1.88 107 1.88  47 1.94  63 1.97  55 2.01
   8  0.144  0.644  0.143- 116 1.82 100 1.88 108 1.88  48 1.94  64 1.97  56 2.01
   9  0.139  0.142  0.141-  67 1.83  94 1.90  60 1.92  50 1.92 111 1.95 104 1.96
  10  0.139  0.642  0.641-  68 1.83  93 1.90  59 1.92  49 1.92 112 1.95 103 1.96
  11  0.639  0.642  0.141-  65 1.83  96 1.90  58 1.92  52 1.92 109 1.95 102 1.96
  12  0.639  0.142  0.641-  66 1.83  95 1.90  57 1.92  51 1.92 110 1.95 101 1.96
  13  0.852  0.854  0.855-  88 1.85 129 1.88  78 1.91  71 1.93 124 1.95 138 1.97
  14  0.852  0.354  0.355-  87 1.85 130 1.88  77 1.91  72 1.93 123 1.95 137 1.97
  15  0.352  0.354  0.855-  86 1.85 131 1.88  80 1.91  69 1.93 122 1.95 140 1.97
  16  0.352  0.854  0.355-  85 1.85 132 1.88  79 1.91  70 1.93 121 1.95 139 1.97
  17  0.349  0.352  0.352- 125 1.82 133 1.85 117 1.88  73 1.96  89 1.98  81 2.00
  18  0.349  0.852  0.852- 126 1.82 134 1.85 118 1.88  74 1.96  90 1.98  82 2.00
  19  0.849  0.852  0.352- 127 1.82 135 1.85 119 1.88  75 1.96  91 1.98  83 2.00
  20  0.849  0.352  0.852- 128 1.82 136 1.85 120 1.88  76 1.96  92 1.98  84 2.00
  21  0.388  0.743  0.606- 118 1.52  53 1.53  93 1.53  85 1.53
  22  0.388  0.243  0.106- 117 1.52  54 1.53  94 1.53  86 1.53
  23  0.888  0.243  0.606- 120 1.52  55 1.53  95 1.53  87 1.53
  24  0.888  0.743  0.106- 119 1.52  56 1.53  96 1.53  88 1.53
  25  0.390  0.606  0.252- 121 1.51 100 1.52  81 1.53  65 1.54
  26  0.390  0.106  0.752- 122 1.51  99 1.52  82 1.53  66 1.54
  27  0.890  0.107  0.252- 123 1.51  98 1.52  83 1.53  67 1.54
  28  0.890  0.607  0.752- 124 1.51  97 1.52  84 1.53  68 1.54
  29  0.604  0.389  0.744-  69 1.51 101 1.53  61 1.53 128 1.55
  30  0.604  0.889  0.244-  70 1.51 102 1.53  62 1.53 127 1.55
  31  0.104  0.889  0.744-  71 1.51 103 1.53  63 1.53 126 1.55
  32  0.104  0.389  0.244-  72 1.51 104 1.53  64 1.53 125 1.55
  33  0.248  0.390  0.606-  49 1.51 107 1.52  89 1.54 131 1.54
  34  0.248  0.890  0.106-  50 1.51 108 1.52  90 1.54 132 1.54
  35  0.748  0.890  0.606-  51 1.51 105 1.52  91 1.54 129 1.54
  36  0.748  0.390  0.106-  52 1.51 106 1.52  92 1.54 130 1.54
  37  0.746  0.604  0.388-  77 1.52 109 1.52 135 1.52  45 1.55
  38  0.746  0.104  0.888-  78 1.52 110 1.52 136 1.52  46 1.55
  39  0.246  0.104  0.388-  79 1.52 111 1.52 133 1.52  47 1.55
  40  0.246  0.604  0.888-  80 1.52 112 1.52 134 1.52  48 1.55
  41  0.607  0.252  0.391-  57 1.51 137 1.52  73 1.53 114 1.54
  42  0.607  0.752  0.891-  58 1.51 138 1.52  74 1.53 113 1.54
  43  0.107  0.752  0.391-  59 1.51 139 1.52  75 1.53 116 1.54
  44  0.107  0.252  0.891-  60 1.51 140 1.52  76 1.53 115 1.54
  45  0.680  0.578  0.500-  37 1.55   5 1.94   1 2.38
  46  0.680  0.078  1.000-  38 1.55   6 1.94   2 2.38
  47  0.180  0.078  0.500-  39 1.55   7 1.94   3 2.38
  48  0.180  0.578  1.000-  40 1.55   8 1.94   4 2.38
  49  0.165  0.485  0.629-  33 1.51  10 1.92
  50  0.165  0.985  0.128-  34 1.51   9 1.92
  51  0.665  0.985  0.628-  35 1.51  12 1.92
  52  0.665  0.485  0.128-  36 1.51  11 1.92
  53  0.495  0.674  0.577-  21 1.53   5 2.01   1 2.44
  54  0.495  0.174  0.077-  22 1.53   6 2.01   2 2.44
  55  0.995  0.174  0.577-  23 1.53   7 2.01   3 2.44
  56  0.995  0.674  0.077-  24 1.53   8 2.01   4 2.44
  57  0.632  0.164  0.482-  41 1.51  12 1.92
  58  0.632  0.664  0.982-  42 1.51  11 1.92
  59  0.131  0.664  0.482-  43 1.51  10 1.92
  60  0.132  0.164  0.982-  44 1.51   9 1.92
[...]
 126  0.212  0.902  0.809-  31 1.55  18 1.82
 127  0.712  0.902  0.309-  30 1.55  19 1.82
 128  0.712  0.402  0.809-  29 1.55  20 1.82
 129  0.831  0.869  0.701-  35 1.54  13 1.88
 130  0.831  0.369  0.201-  36 1.54  14 1.88
 131  0.331  0.369  0.701-  33 1.54  15 1.88
 132  0.331  0.869  0.201-  34 1.54  16 1.88
 133  0.307  0.211  0.399-  39 1.52  17 1.85
 134  0.307  0.711  0.899-  40 1.52  18 1.85
 135  0.807  0.711  0.399-  37 1.52  19 1.85
 136  0.807  0.211  0.899-  38 1.52  20 1.85
 137  0.690  0.343  0.378-  41 1.52  14 1.97
 138  0.690  0.843  0.878-  42 1.52  13 1.97
 139  0.190  0.843  0.378-  43 1.52  16 1.97
 140  0.190  0.343  0.878-  44 1.52  15 1.97

IMPORTANT INFORMATION: All symmetrisations will be switched off!
NOSYMM: (Re-)initialisation of all symmetry stuff for point group C_1.

                                     Primitive cell

  volume of cell :    1724.0894

  direct lattice vectors                    reciprocal lattice vectors
    -4.514295864  6.933377727  8.688696700    -0.036414881  0.048388116  0.057559768
     5.079531101 -6.575608084  8.741379973     0.033540665 -0.049981352  0.057310330
     9.741198163  6.926601223  0.339810172     0.068291558  0.048486859 -0.003209849

  length of vectors
    11.997668282 12.060347495 11.957600809     0.083549867  0.083111886  0.083815366

  position of ions in fractional coordinates (direct lattice)
     0.507107810  0.492579028  0.492648323
     0.507096295  0.992593017  0.992655498
     0.007099508  0.992619711  0.492645940
     0.007153490  0.492605349  0.992603749
     0.644211745  0.643535451  0.643151518
     0.644281915  0.143537729  0.143143480
     0.144279723  0.143581725  0.643127346
     0.144276595  0.643520046  0.143129974
     0.138976217  0.142292161  0.141325522
     0.138836013  0.642382847  0.641248755
     0.638980174  0.642295213  0.141328139
     0.638977506  0.142292835  0.641327204
     0.852379009  0.853925642  0.855355153
     0.852375617  0.353906662  0.355350945
     0.352387373  0.353904313  0.855363835
     0.352367338  0.853891751  0.355356102
     0.349216199  0.351722474  0.351954517
     0.349196696  0.851709602  0.851946815
     0.849197122  0.851724815  0.351942069
     0.849228908  0.351720514  0.851938315
     0.387801913  0.742729841  0.605685030
     0.387888133  0.242781109  0.105689205
     0.887875697  0.242794926  0.605678574
     0.887880453  0.742788169  0.105677708
     0.389864381  0.606494481  0.252295886
     0.389864834  0.106496293  0.752293131
     0.889861662  0.106501153  0.252289759
     0.889824546  0.606536260  0.752270285
     0.604297253  0.389173834  0.744411498
     0.604278033  0.889179700  0.244404650
     0.104295350  0.889227931  0.744418031
     0.104283271  0.389174175  0.244405943
     0.248092500  0.389632789  0.606259906
     0.248020752  0.889614323  0.106216387
     0.748008898  0.889613487  0.606218419
     0.748029324  0.389626009  0.106206801
     0.746071463  0.604492306  0.387809508
     0.746070303  0.104499772  0.887803595
     0.246070919  0.104486761  0.387801467
     0.246056531  0.604472096  0.887781430
     0.606725542  0.251609806  0.390721608
     0.606717520  0.751623864  0.890737691
     0.106641630  0.751586645  0.390701248
     0.106723629  0.251624989  0.890713948
     0.680339165  0.578486016  0.499568720
     0.680354798  0.078469672  0.999562167
     0.180347162  0.078472702  0.499563795
     0.180374039  0.578492772  0.999580124
     0.165173989  0.485148200  0.628541546
     0.164963583  0.985107850  0.128302719
     0.664960205  0.985106005  0.628304238
     0.664959698  0.485107791  0.128299708
     0.494557614  0.673540916  0.576826606
     0.494615090  0.173570846  0.076792735
     0.994610217  0.173591240  0.576773068
     0.994598842  0.673571871  0.076776457
     0.631768980  0.164062646  0.482062464
     0.631781424  0.664053314  0.982056905
     0.131327823  0.663880032  0.482004538
     0.131747890  0.164072133  0.982059571
[...]
     0.211589043  0.901750521  0.808600263
     0.711593637  0.901684990  0.308578851
     0.711621318  0.401684602  0.808569152
     0.830517727  0.869192520  0.700661351
     0.830524246  0.369193353  0.200653481
     0.330649114  0.369085471  0.700642198
     0.330521965  0.869198953  0.200661828
     0.307144622  0.210725157  0.399158865
[...]
   -.143E+02 -.132E+01 -.850E+01   0.143E+02 0.153E+01 0.943E+01   0.202E-01 -.194E+00 -.899E+00
   0.774E+02 0.504E+02 0.121E+03   -.776E+02 -.499E+02 -.120E+03   0.160E+00 -.434E+00 -.497E+00
   0.774E+02 0.504E+02 0.121E+03   -.776E+02 -.499E+02 -.120E+03   0.175E+00 -.449E+00 -.501E+00
   0.774E+02 0.505E+02 0.121E+03   -.776E+02 -.500E+02 -.121E+03   0.160E+00 -.435E+00 -.497E+00
   0.775E+02 0.504E+02 0.121E+03   -.776E+02 -.500E+02 -.120E+03   0.160E+00 -.435E+00 -.497E+00
   -.615E+02 -.525E+02 -.136E+03   0.612E+02 0.522E+02 0.136E+03   0.276E+00 0.254E+00 0.534E-01
   -.614E+02 -.524E+02 -.136E+03   0.611E+02 0.522E+02 0.135E+03   0.276E+00 0.253E+00 0.544E-01
   -.615E+02 -.524E+02 -.136E+03   0.612E+02 0.521E+02 0.135E+03   0.279E+00 0.252E+00 0.523E-01
   -.614E+02 -.524E+02 -.136E+03   0.612E+02 0.521E+02 0.136E+03   0.277E+00 0.251E+00 0.569E-01
   -.288E+00 0.152E+02 0.754E+01   -.389E+00 -.150E+02 -.807E+01   0.635E+00 -.177E+00 0.501E+00
   -.210E+00 0.150E+02 0.733E+01   -.462E+00 -.148E+02 -.785E+01   0.632E+00 -.173E+00 0.499E+00
   -.349E+00 0.153E+02 0.752E+01   -.325E+00 -.151E+02 -.804E+01   0.634E+00 -.176E+00 0.496E+00
   -.511E+00 0.151E+02 0.724E+01   -.167E+00 -.150E+02 -.777E+01   0.638E+00 -.176E+00 0.502E+00
   0.743E+01 0.152E+02 -.460E+02   -.699E+01 -.139E+02 0.456E+02   -.446E+00 -.140E+01 0.325E+00
   0.747E+01 0.152E+02 -.460E+02   -.703E+01 -.139E+02 0.457E+02   -.453E+00 -.141E+01 0.333E+00
   0.753E+01 0.153E+02 -.460E+02   -.709E+01 -.139E+02 0.457E+02   -.451E+00 -.141E+01 0.333E+00
   0.755E+01 0.153E+02 -.461E+02   -.711E+01 -.139E+02 0.457E+02   -.447E+00 -.141E+01 0.332E+00
   0.544E+02 0.409E+01 0.558E+01   -.516E+02 -.422E+01 -.612E+01   -.292E+01 0.120E+00 0.561E+00
   0.545E+02 0.405E+01 0.568E+01   -.516E+02 -.418E+01 -.621E+01   -.292E+01 0.111E+00 0.552E+00
   0.544E+02 0.409E+01 0.556E+01   -.516E+02 -.422E+01 -.609E+01   -.292E+01 0.112E+00 0.558E+00
   0.544E+02 0.400E+01 0.568E+01   -.516E+02 -.413E+01 -.625E+01   -.297E+01 0.122E+00 0.599E+00
   -.572E+02 -.720E+01 -.845E+01   0.569E+02 0.564E+01 0.579E+01   0.312E+00 0.164E+01 0.274E+01
   -.573E+02 -.713E+01 -.836E+01   0.570E+02 0.556E+01 0.570E+01   0.311E+00 0.164E+01 0.274E+01
   -.573E+02 -.714E+01 -.833E+01   0.570E+02 0.558E+01 0.569E+01   0.306E+00 0.164E+01 0.273E+01
   -.573E+02 -.717E+01 -.844E+01   0.569E+02 0.561E+01 0.579E+01   0.315E+00 0.164E+01 0.274E+01
   -.327E+01 0.478E+02 0.153E+02   0.391E+01 -.490E+02 -.155E+02   -.675E+00 0.128E+01 0.157E+00
   -.355E+01 0.477E+02 0.152E+02   0.416E+01 -.489E+02 -.154E+02   -.641E+00 0.125E+01 0.174E+00
   -.353E+01 0.478E+02 0.153E+02   0.414E+01 -.490E+02 -.155E+02   -.646E+00 0.126E+01 0.167E+00
   -.346E+01 0.478E+02 0.152E+02   0.408E+01 -.490E+02 -.154E+02   -.649E+00 0.125E+01 0.165E+00
   0.946E+01 -.508E+02 -.264E+02   -.112E+02 0.499E+02 0.259E+02   0.179E+01 0.962E+00 0.575E+00
   0.948E+01 -.508E+02 -.264E+02   -.112E+02 0.499E+02 0.259E+02   0.178E+01 0.965E+00 0.578E+00
   0.952E+01 -.508E+02 -.264E+02   -.113E+02 0.499E+02 0.259E+02   0.179E+01 0.959E+00 0.573E+00
   0.943E+01 -.507E+02 -.267E+02   -.112E+02 0.498E+02 0.261E+02   0.180E+01 0.996E+00 0.604E+00
   0.630E+01 -.213E+02 0.548E+02   -.445E+01 0.228E+02 -.531E+02   -.193E+01 -.144E+01 -.170E+01
   0.629E+01 -.213E+02 0.548E+02   -.443E+01 0.227E+02 -.531E+02   -.194E+01 -.144E+01 -.171E+01
   0.643E+01 -.215E+02 0.544E+02   -.457E+01 0.229E+02 -.528E+02   -.193E+01 -.144E+01 -.169E+01
   0.627E+01 -.214E+02 0.548E+02   -.442E+01 0.228E+02 -.531E+02   -.192E+01 -.144E+01 -.170E+01
   0.891E+02 -.623E+02 0.235E+02   -.717E+02 0.747E+02 -.414E+02   -.175E+02 -.124E+02 0.179E+02
   0.892E+02 -.624E+02 0.236E+02   -.717E+02 0.748E+02 -.415E+02   -.175E+02 -.124E+02 0.179E+02
   0.892E+02 -.624E+02 0.235E+02   -.717E+02 0.749E+02 -.414E+02   -.175E+02 -.124E+02 0.179E+02
   0.892E+02 -.624E+02 0.234E+02   -.718E+02 0.748E+02 -.413E+02   -.174E+02 -.124E+02 0.179E+02
   0.209E+02 0.757E+02 0.177E+03   0.210E+01 -.977E+02 -.184E+03   -.231E+02 0.220E+02 0.707E+01
   0.211E+02 0.760E+02 0.177E+03   0.178E+01 -.981E+02 -.184E+03   -.229E+02 0.221E+02 0.717E+01
   0.211E+02 0.761E+02 0.177E+03   0.178E+01 -.981E+02 -.184E+03   -.229E+02 0.221E+02 0.717E+01
   0.211E+02 0.760E+02 0.177E+03   0.175E+01 -.981E+02 -.184E+03   -.229E+02 0.221E+02 0.718E+01
   0.454E+02 0.899E+02 0.679E+01   -.724E+02 -.748E+02 -.215E+01   0.270E+02 -.152E+02 -.464E+01
   0.455E+02 0.899E+02 0.679E+01   -.725E+02 -.747E+02 -.216E+01   0.271E+02 -.152E+02 -.464E+01
   0.455E+02 0.899E+02 0.675E+01   -.726E+02 -.748E+02 -.212E+01   0.271E+02 -.152E+02 -.464E+01
   0.455E+02 0.899E+02 0.680E+01   -.726E+02 -.747E+02 -.217E+01   0.271E+02 -.152E+02 -.464E+01
   0.132E+03 -.180E+02 0.160E+03   -.135E+03 0.484E+02 -.176E+03   0.374E+01 -.304E+02 0.159E+02
   0.132E+03 -.180E+02 0.160E+03   -.135E+03 0.485E+02 -.176E+03   0.375E+01 -.305E+02 0.159E+02
   0.132E+03 -.181E+02 0.161E+03   -.136E+03 0.484E+02 -.177E+03   0.372E+01 -.304E+02 0.161E+02
   0.132E+03 -.180E+02 0.160E+03   -.135E+03 0.485E+02 -.176E+03   0.374E+01 -.304E+02 0.159E+02
[...]
   -.146E+03 0.954E+02 0.406E+01   0.158E+03 -.833E+02 0.161E+02   -.114E+02 -.121E+02 -.202E+02
   -.146E+03 0.953E+02 0.393E+01   0.158E+03 -.833E+02 0.162E+02   -.114E+02 -.121E+02 -.202E+02
   0.110E+03 0.245E+02 -.758E+02   -.111E+03 -.271E+00 0.906E+02   0.639E+00 -.243E+02 -.149E+02
   0.110E+03 0.245E+02 -.758E+02   -.111E+03 -.235E+00 0.907E+02   0.636E+00 -.243E+02 -.149E+02
   0.110E+03 0.243E+02 -.757E+02   -.111E+03 -.245E-01 0.906E+02   0.695E+00 -.243E+02 -.149E+02
   0.110E+03 0.245E+02 -.758E+02   -.111E+03 -.215E+00 0.906E+02   0.636E+00 -.243E+02 -.149E+02
   -.991E+01 -.155E+03 0.244E+02   0.209E+02 0.161E+03 0.145E+01   -.110E+02 -.530E+01 -.258E+02
   -.990E+01 -.155E+03 0.245E+02   0.209E+02 0.161E+03 0.128E+01   -.110E+02 -.529E+01 -.258E+02
   -.994E+01 -.155E+03 0.244E+02   0.209E+02 0.161E+03 0.137E+01   -.110E+02 -.530E+01 -.258E+02
   -.998E+01 -.155E+03 0.244E+02   0.210E+02 0.161E+03 0.144E+01   -.110E+02 -.530E+01 -.258E+02
   -.872E+02 0.897E+02 -.166E+02   0.932E+02 -.100E+03 0.483E+02   -.600E+01 0.103E+02 -.317E+02
   -.872E+02 0.897E+02 -.166E+02   0.931E+02 -.100E+03 0.483E+02   -.599E+01 0.103E+02 -.318E+02
   -.872E+02 0.893E+02 -.166E+02   0.932E+02 -.996E+02 0.484E+02   -.601E+01 0.103E+02 -.318E+02
   -.872E+02 0.895E+02 -.166E+02   0.932E+02 -.998E+02 0.483E+02   -.601E+01 0.103E+02 -.317E+02
   0.190E+02 -.127E+02 -.147E+02   0.355E-12 -.654E-12 0.114E-11   -.198E+02 0.133E+02 0.138E+02

 POSITION                                       TOTAL-FORCE (eV/Angst)
      5.01182      3.68934      8.87933         0.004139     -0.003309     -0.006453
     12.42238      3.86472     13.41995         0.004055     -0.004064     -0.006198
      9.80896     -3.06549      8.90596         0.004610     -0.004057     -0.007032
     12.13906      3.68579      4.70550         0.004723     -0.005860     -0.007374
      6.62576      4.68978     11.44130         0.006064      0.008146      0.006389
     -0.78499      4.51470      6.90133         0.006483      0.008503      0.005356
      6.34284      4.51090      2.72725         0.007388      0.010258      0.004344
      4.01173     -2.23981      6.92747         0.006946      0.007281      0.004944
      1.47208      1.00682      2.49938         0.004509     -0.000886     -0.005615
      8.88279      1.18022      7.03952         0.004142      0.022730      0.002107
      1.75472      1.18573     11.21448         0.004089     -0.000464     -0.006171
      4.08554      7.93683      7.01365         0.003900     -0.000405     -0.006422
      8.82183      6.21949     15.16121         0.007008     -0.009440     -0.008397
      1.41135      6.04406     10.62042         0.007656     -0.009441     -0.006776
      8.53916      6.04086      6.44606         0.007556     -0.009655     -0.006153
      6.20827     -0.71035     10.64656         0.007584     -0.008078     -0.006178
      3.63858      2.54631      6.22837        -0.017369     -0.005768     -0.006058
     11.04889      2.72170     10.76868        -0.016408     -0.006314     -0.005755
      3.92117      2.72496     14.94326        -0.016114     -0.004718     -0.005843
      6.25180      9.47629     10.74271        -0.015378     -0.005943     -0.005238
      7.92216      2.00022     10.06779        -0.000125     -0.008111      0.005046
      0.51171      1.82501      5.52840        -0.000395     -0.007604      0.005034
      3.12519      8.75475     10.04266        -0.004060     -0.006293      0.005571
      0.79429      2.00371     14.24343         0.001349     -0.006975      0.003771
      3.77841      0.46256      8.77474        -0.007545     -0.009471      0.005367
      6.10922      7.21364      4.57398        -0.006707     -0.013077      0.002662
     -1.01852      7.21695      8.74844        -0.007619     -0.010769      0.003887
      6.39200      7.39182     13.28901        -0.008967     -0.009308      0.005820
      6.50030      6.78701      8.90543         0.002851      0.006683      0.004295
      4.16952      0.03568     13.10610        -0.000424      0.007031      0.006355
     11.29756      0.03219      8.93223        -0.005227      0.005588      0.005201
      3.88686     -0.14312      4.39106         0.000734      0.007871      0.004969
      6.76489      3.35737      5.76754        -0.006706      0.000459     -0.006945
      4.43386     -3.39442      9.96753        -0.006834      0.000156     -0.003964
      7.04738      3.53551     14.48167        -0.008082      0.002729     -0.003867
     -0.36313      3.35999      9.94136        -0.004049      0.000777     -0.004160
      3.48028      3.88409     11.89827         0.017460      0.001945      0.011762
      5.81110     10.63510      7.69754         0.016210      0.006124      0.011478
      3.19756      3.70518      3.18317         0.019409      0.002438      0.012022
     10.60772      3.88054      7.72351         0.014897      0.007173      0.011187
      2.34522      5.25854      7.60384        -0.002244     -0.012096     -0.015009
      9.75585      5.43400     12.14450        -0.002685     -0.009233     -0.017971
      7.14219     -1.49652      7.62925         0.000127     -0.013540     -0.017051
      9.47298      5.25499      3.42951        -0.001822     -0.010224     -0.015291
      4.73358      4.37346     11.13779         0.001088      0.001476      0.013176
      7.06420     11.12474      6.93699        -0.000001      0.001076      0.013651
      4.45081      4.19469      2.42270         0.000630      0.001333      0.013998
     11.86132      4.37035      6.96371         0.001020      0.003192      0.013165
      7.84143      2.30873      5.88960        -0.003920      0.011328     -0.004771
      5.50901     -4.44523     10.08812        -0.002464      0.018208     -0.000349
      8.12249      2.48476     14.60233        -0.000966      0.016768      0.000104
      0.71209      2.30922     10.06174        -0.003404      0.019034     -0.000174
      6.80767      2.99546     10.38075        -0.009111      0.004837     -0.001761
     -0.60313      2.81993      5.84090        -0.007369      0.005245      0.000015
      2.01026      9.74962     10.35529        -0.006024      0.002968     -0.000338
     -0.32059      2.99858     14.55580        -0.008671      0.004400      0.000054
      2.67724      6.64054      7.08719         0.000614     -0.004080     -0.000094
     10.08744      6.81614     11.62781         0.000910     -0.006876      0.000557
      7.47465     -0.11622      7.10809        -0.001545     -0.000591      0.007895
      9.80510      6.63692      2.91265         0.000268     -0.004491      0.000639
[...]
     11.50203      1.13832      9.99575         0.005360      0.002703     -0.005426
      4.37372      1.14202     14.16965         0.004684      0.000605     -0.007033
      6.70433      7.89325      9.96910         0.004789      0.001578     -0.006161
      7.49117      4.89603     15.05215         0.002713     -0.006541      0.003265
      0.08070      4.72051     10.51162         0.002721     -0.006880      0.003840
      7.20723      4.71862      6.33731         0.004710     -0.006631      0.003803
      4.87774     -2.03397     10.53799         0.003503     -0.006224      0.002327
      3.57213      3.50872      4.64635         0.008631      0.018465      0.014208
     10.98220      3.68355      9.18686         0.008655      0.016819      0.010701
      3.85475      3.68756     13.36151         0.009278      0.018726      0.013773
      6.18569     10.43854      9.16074         0.009079      0.018348      0.014615
      2.31416      5.14252      9.12313        -0.004801     -0.005177      0.005218
      9.72444      5.31794     13.66369        -0.004462     -0.006015      0.007675
      7.11127     -1.61060      9.14861        -0.005351     -0.003718      0.005181
      9.44207      5.13929      4.94885        -0.005977     -0.005465      0.005907
    total drift:                               -0.734454      0.603300     -0.842501

  FREE ENERGIE OF THE ION-ELECTRON SYSTEM (eV)
  free  energy   TOTEN  =     -1526.59518589 eV

  energy  without entropy=    -1526.59518589  energy(sigma->0) =    -1526.59518589

 reached required accuracy - stopping structural energy minimisation

 total charge

[...]

 magnetization (x)

# of ion       s       p       d       tot
    1        0.001  -0.000   0.000   0.001
    2        0.001  -0.000   0.000   0.001
    3        0.001  -0.000   0.000   0.001
    4        0.001  -0.000   0.000   0.001
    5        0.003   0.008   1.001   1.011
    6        0.003   0.008   1.000   1.011
    7        0.003   0.008   1.001   1.012
    8        0.003   0.008   1.001   1.012
    9        0.003   0.007   0.965   0.976
   10        0.003   0.007   0.966   0.976
   11        0.003   0.007   0.965   0.976
   12        0.003   0.007   0.965   0.976
   13        0.003   0.007   0.980   0.991
   14        0.003   0.007   0.980   0.991
   15        0.003   0.007   0.979   0.990
   16        0.003   0.007   0.980   0.991
   17        0.003   0.008   0.998   1.009
   18        0.003   0.008   0.998   1.008
   19        0.003   0.008   0.998   1.008
   20        0.003   0.008   0.998   1.009
   21        0.002   0.004   0.000   0.006
   22        0.002   0.004   0.000   0.006
   23        0.002   0.004   0.000   0.006
   24        0.002   0.004   0.000   0.006
   25        0.001   0.005   0.000   0.006
   26        0.001   0.005   0.000   0.006
   27        0.001   0.005   0.000   0.006
   28        0.001   0.005   0.000   0.006
   29        0.003   0.005   0.000   0.008
   30        0.003   0.005   0.000   0.008
   31        0.003   0.005   0.000   0.008
   32        0.003   0.005   0.000   0.008
   33        0.002   0.006   0.000   0.009
   34        0.002   0.006   0.000   0.009
   35        0.002   0.006   0.000   0.009
   36        0.002   0.006   0.000   0.009
   37        0.002   0.005   0.000   0.008
   38        0.003   0.005   0.000   0.008
   39        0.003   0.005   0.000   0.008
   40        0.002   0.005   0.000   0.008
   41        0.003   0.005   0.000   0.008
   42        0.003   0.005   0.000   0.008
   43        0.003   0.005   0.000   0.008
   44        0.003   0.005   0.000   0.008
   45       -0.000  -0.017   0.000  -0.017
   46       -0.000  -0.017   0.000  -0.017
   47       -0.000  -0.017   0.000  -0.017
   48       -0.000  -0.017   0.000  -0.017
   49       -0.000   0.000   0.000  -0.000
   50       -0.000   0.000   0.000  -0.000
   51       -0.000   0.000   0.000  -0.000
   52       -0.000   0.000   0.000  -0.000
   53       -0.000  -0.006   0.000  -0.006
   54       -0.000  -0.006   0.000  -0.006
   55       -0.000  -0.006   0.000  -0.006
   56       -0.000  -0.006   0.000  -0.006
   57        0.000  -0.003   0.000  -0.003
   58        0.000  -0.003   0.000  -0.003
   59        0.000  -0.003   0.000  -0.003
   60        0.000  -0.003   0.000  -0.003
[...]
  126       -0.001  -0.030   0.000  -0.031
  127       -0.001  -0.030   0.000  -0.031
  128       -0.001  -0.030   0.000  -0.031
  129       -0.001  -0.029   0.000  -0.030
  130       -0.001  -0.029   0.000  -0.030
  131       -0.001  -0.029   0.000  -0.030
  132       -0.001  -0.029   0.000  -0.030
  133       -0.000  -0.004   0.000  -0.005
  134       -0.000  -0.005   0.000  -0.005
  135       -0.000  -0.005   0.000  -0.005
  136       -0.000  -0.005   0.000  -0.005
  137        0.000  -0.006   0.000  -0.006
  138        0.000  -0.006   0.000  -0.006
  139        0.000  -0.006   0.000  -0.006
  140        0.000  -0.006   0.000  -0.006
tot          0.082  -0.895  15.774  14.962