 vasp.6.1.2 22Jul20 (build Dec 05 2020 14:50:36) complex

 executed on         CrayXC-Intel date 2021.06.18  23:25:35

 INCAR:
 POTCAR:    PAW_PBE Ca_sv 06Sep2000
 POTCAR:    PAW_PBE V_pv 07Sep2000
 POTCAR:    PAW_PBE O 08Apr2002
 POTCAR:    PAW_PBE Ca_sv 06Sep2000
   VRHFIN =Ca: 3s3p4s

   TITEL  = PAW_PBE Ca_sv 06Sep2000
   POMASS =   40.078; ZVAL   =   10.000    mass and valenz
   ENMAX  =  266.622; ENMIN  =  199.967 eV

 POTCAR:    PAW_PBE V_pv 07Sep2000
   VRHFIN =V: p6 d4 s1

   TITEL  = PAW_PBE V_pv 07Sep2000
   POMASS =   50.941; ZVAL   =   11.000    mass and valenz
   ENMAX  =  263.673; ENMIN  =  197.755 eV

 POTCAR:    PAW_PBE O 08Apr2002
   VRHFIN =O: s2p4

   TITEL  = PAW_PBE O 08Apr2002
   POMASS =   16.000; ZVAL   =    6.000    mass and valenz
   ENMAX  =  400.000; ENMIN  =  300.000 eV

 Optimization of the real space projectors (new method)

 maximal supplied QI-value         = 16.25
 optimisation between [QCUT,QGAM] = [ 11.54, 23.24] = [ 37.28,151.24] Ry
 Optimized for a Real-space Cutoff    1.58 Angstroem

   l    n(q)    QCUT    max X(q) W(low)/X(q) W(high)/X(q)  e(spline)
   0     11    11.539    11.817    0.25E-04    0.22E-05    0.26E-07
   0     11    11.539     8.461    0.39E-04    0.49E-05    0.55E-07
   1     11    11.539     3.957    0.21E-05    0.44E-05    0.32E-07
   1     11    11.539     4.314    0.56E-04    0.44E-04    0.19E-06
   2     10    11.539    14.565    0.25E-03    0.21E-04    0.75E-06
   2     10    11.539    14.552    0.23E-03    0.22E-04    0.72E-06
 Optimization of the real space projectors (new method)

[...]

   l    n(q)    QCUT    max X(q) W(low)/X(q) W(high)/X(q)  e(spline)
   1     10    11.539     3.206    0.43E-05    0.46E-05    0.52E-07
   1     10    11.539     4.597    0.39E-04    0.25E-04    0.17E-06
   2     10    11.539    89.000    0.10E-03    0.13E-03    0.24E-06
   2     10    11.539    82.410    0.10E-03    0.13E-03    0.23E-06
   0     11    11.539    36.565    0.42E-04    0.19E-04    0.30E-06
   0     11    11.539    13.729    0.20E-04    0.13E-04    0.22E-06
 Optimization of the real space projectors (new method)

 maximal supplied QI-value         = 24.76
 optimisation between [QCUT,QGAM] = [ 11.64, 23.27] = [ 37.91,151.63] Ry
 Optimized for a Real-space Cutoff    1.14 Angstroem

   l    n(q)    QCUT    max X(q) W(low)/X(q) W(high)/X(q)  e(spline)
   0      8    11.635    20.381    0.10E-03    0.33E-03    0.24E-06
   0      8    11.635    15.268    0.11E-03    0.35E-03    0.26E-06
   1      7    11.635     5.964    0.24E-03    0.31E-03    0.30E-06
   1      7    11.635     5.382    0.22E-03    0.25E-03    0.26E-06
  PAW_PBE Ca_sv 06Sep2000               :
  PAW_PBE V_pv 07Sep2000                :
  PAW_PBE O 08Apr2002                   :

 POSCAR: Ca2 V4 O10
  positions in direct lattice
  velocities in cartesian coordinates

 METAGGA = SCAN     LMAXTAU =  6    LMIXTAU =  F

 ion  position               nearest neighbor table
   1  0.250  0.750  0.850-  16 2.33  16 2.33  10 2.51  10 2.51   9 2.51   9 2.51  12 2.53  11 2.53

   2  0.750  0.250  0.150-  15 2.33  15 2.33   7 2.51   7 2.51   8 2.51   8 2.51  13 2.53  14 2.53

   3  0.904  0.750  0.612-   7 1.67  15 1.91  13 1.95  13 1.95  11 1.98
   4  0.596  0.750  0.612-   8 1.67  15 1.91  14 1.95  14 1.95  12 1.98
   5  0.096  0.250  0.388-   9 1.67  16 1.91  11 1.95  11 1.95  13 1.98
   6  0.404  0.250  0.388-  10 1.67  16 1.91  12 1.95  12 1.95  14 1.98
   7  0.876  0.750  0.943-   3 1.67   2 2.51   2 2.51
   8  0.624  0.750  0.943-   4 1.67   2 2.51   2 2.51
   9  0.124  0.250  0.057-   5 1.67   1 2.51   1 2.51
  10  0.376  0.250  0.057-   6 1.67   1 2.51   1 2.51
  11  0.075  0.750  0.534-   5 1.95   5 1.95   3 1.98   1 2.53
  12  0.425  0.750  0.534-   6 1.95   6 1.95   4 1.98   1 2.53
  13  0.925  0.250  0.466-   3 1.95   3 1.95   5 1.98   2 2.53
  14  0.575  0.250  0.466-   4 1.95   4 1.95   6 1.98   2 2.53
  15  0.750  0.750  0.451-   4 1.91   3 1.91   2 2.33   2 2.33
  16  0.250  0.250  0.549-   5 1.91   6 1.91   1 2.33   1 2.33

IMPORTANT INFORMATION: All symmetrisations will be switched off!
NOSYMM: (Re-)initialisation of all symmetry stuff for point group C_1.

                                     Primitive cell

  volume of cell :     200.8191

  direct lattice vectors                    reciprocal lattice vectors
    11.338696164  0.000000035  0.000000939     0.088193562 -0.000000000 -0.000000007
     0.000000017  3.580389861  0.000000008    -0.000000001  0.279299193 -0.000000000
     0.000000415  0.000000008  4.946654009    -0.000000017 -0.000000000  0.202156852

  length of vectors
    11.338696164  3.580389861  4.946654009     0.088193562  0.279299193  0.202156852

  position of ions in fractional coordinates (direct lattice)
     0.250010917  0.749999997  0.850210258
     0.750010901  0.250000012  0.149790142
     0.903634742  0.750000039  0.611665550
     0.596358575  0.749999958  0.611613628
     0.096358903  0.250000004  0.388385395
     0.403634330  0.249999990  0.388332113
     0.876192317  0.750000020  0.942963164
     0.623840390  0.749999965  0.942894908
     0.123840330  0.249999999  0.057106004
     0.376192413  0.250000011  0.057037835
     0.074645893  0.750000006  0.534087484
     0.425320821  0.749999992  0.534064139
     0.925320805  0.250000024  0.465936063
     0.574645876  0.249999972  0.465913034
     0.749996369  0.750000011  0.451338138
     0.249996420  0.249999998  0.548662146

  ion indices of the primitive-cell ions
   primitive index   ion index
                 1           1
                 2           2
                 3           3
                 4           4
                 5           5
                 6           6
                 7           7
                 8           8
                 9           9
                10          10
                11          11
                12          12
                13          13
                14          14
                15          15
                16          16

 KPOINTS: K-points file

Automatic generation of k-mesh.
Space group operators:
 irot       det(A)        alpha          n_x          n_y          n_z        tau_x        tau_y        tau_z
    1     1.000000     0.000001     1.000000     0.000000     0.000000     0.000000     0.000000     0.000000

 Subroutine IBZKPT returns following result:

 Found     95 irreducible k-points:

 Following reciprocal coordinates:
            Coordinates               Weight
  0.000000  0.000000  0.000000      1.000000
  0.333333  0.000000 -0.000000      2.000000
 -0.000000  0.111111  0.000000      2.000000
  0.333333  0.111111 -0.000000      2.000000
 -0.333333  0.111111  0.000000      2.000000
 -0.000000  0.222222  0.000000      2.000000
  0.333333  0.222222 -0.000000      2.000000
 -0.333333  0.222222  0.000000      2.000000
 -0.000000  0.333333  0.000000      2.000000
  0.333333  0.333333 -0.000000      2.000000
 -0.333333  0.333333  0.000000      2.000000
 -0.000000  0.444444  0.000000      2.000000
  0.333333  0.444444 -0.000000      2.000000
 -0.333333  0.444444  0.000000      2.000000
 -0.000000  0.000000  0.142857      2.000000
  0.333333  0.000000  0.142857      2.000000
 -0.333333 -0.000000  0.142857      2.000000
 -0.000000  0.111111  0.142857      2.000000
  0.000000  0.111111 -0.142857      2.000000
  0.333333  0.111111  0.142857      2.000000
 -0.333333  0.111111 -0.142857      2.000000
 -0.333333 -0.111111  0.142857      2.000000
  0.333333 -0.111111 -0.142857      2.000000
 -0.000000  0.222222  0.142857      2.000000
  0.000000  0.222222 -0.142857      2.000000
  0.333333  0.222222  0.142857      2.000000
 -0.333333  0.222222 -0.142857      2.000000
 -0.333333 -0.222222  0.142857      2.000000
  0.333333 -0.222222 -0.142857      2.000000
 -0.000000  0.333333  0.142857      2.000000
  0.000000  0.333333 -0.142857      2.000000
  0.333333  0.333333  0.142857      2.000000
 -0.333333  0.333333 -0.142857      2.000000
 -0.333333 -0.333333  0.142857      2.000000
  0.333333 -0.333333 -0.142857      2.000000
 -0.000000  0.444444  0.142857      2.000000
  0.000000  0.444444 -0.142857      2.000000
  0.333333  0.444444  0.142857      2.000000
 -0.333333  0.444444 -0.142857      2.000000
 -0.333333 -0.444444  0.142857      2.000000
  0.333333 -0.444444 -0.142857      2.000000
 -0.000000  0.000000  0.285714      2.000000
  0.333333  0.000000  0.285714      2.000000
 -0.333333  0.000000  0.285714      2.000000
 -0.000000  0.111111  0.285714      2.000000
  0.000000  0.111111 -0.285714      2.000000
  0.333333  0.111111  0.285714      2.000000
 -0.333333  0.111111 -0.285714      2.000000
 -0.333333 -0.111111  0.285714      2.000000
  0.333333 -0.111111 -0.285714      2.000000
 -0.000000  0.222222  0.285714      2.000000
  0.000000  0.222222 -0.285714      2.000000
  0.333333  0.222222  0.285714      2.000000
 -0.333333  0.222222 -0.285714      2.000000
 -0.333333 -0.222222  0.285714      2.000000
  0.333333 -0.222222 -0.285714      2.000000
 -0.000000  0.333333  0.285714      2.000000
  0.000000  0.333333 -0.285714      2.000000
  0.333333  0.333333  0.285714      2.000000
 -0.333333  0.333333 -0.285714      2.000000
[...]
 -0.333333  0.222222 -0.428571      2.000000
 -0.333333 -0.222222  0.428571      2.000000
  0.333333 -0.222222 -0.428571      2.000000
 -0.000000  0.333333  0.428571      2.000000
  0.000000  0.333333 -0.428571      2.000000
  0.333333  0.333333  0.428571      2.000000
 -0.333333  0.333333 -0.428571      2.000000
 -0.333333 -0.333333  0.428571      2.000000
  0.333333 -0.333333 -0.428571      2.000000
 -0.000000  0.444444  0.428571      2.000000
  0.000000  0.444444 -0.428571      2.000000
  0.333333  0.444444  0.428571      2.000000
 -0.333333  0.444444 -0.428571      2.000000
 -0.333333 -0.444444  0.428571      2.000000
  0.333333 -0.444444 -0.428571      2.000000

 Following cartesian coordinates:
            Coordinates               Weight
  0.000000  0.000000  0.000000      1.000000
  0.029398 -0.000000 -0.000000      2.000000
 -0.000000  0.031033 -0.000000      2.000000
  0.029398  0.031033 -0.000000      2.000000
 -0.029398  0.031033  0.000000      2.000000
 -0.000000  0.062066 -0.000000      2.000000
  0.029398  0.062066 -0.000000      2.000000
 -0.029398  0.062066  0.000000      2.000000
 -0.000000  0.093100 -0.000000      2.000000
  0.029398  0.093100 -0.000000      2.000000
 -0.029398  0.093100  0.000000      2.000000
 -0.000000  0.124133 -0.000000      2.000000
  0.029398  0.124133 -0.000000      2.000000
 -0.029398  0.124133  0.000000      2.000000
 -0.000000 -0.000000  0.028880      2.000000
  0.029398 -0.000000  0.028880      2.000000
 -0.029398  0.000000  0.028880      2.000000
 -0.000000  0.031033  0.028880      2.000000
  0.000000  0.031033 -0.028880      2.000000
  0.029398  0.031033  0.028880      2.000000
 -0.029398  0.031033 -0.028880      2.000000
 -0.029398 -0.031033  0.028880      2.000000
  0.029398 -0.031033 -0.028880      2.000000
 -0.000000  0.062066  0.028880      2.000000
  0.000000  0.062066 -0.028880      2.000000
  0.029398  0.062066  0.028880      2.000000
 -0.029398  0.062066 -0.028880      2.000000
 -0.029398 -0.062066  0.028880      2.000000
[...]
      8.50398      2.68529      2.23261        -0.000344     -0.000004      0.020819
      2.83463      0.89510      2.71404        -0.000306      0.000004     -0.020778
    total drift:                               -0.004147      0.000016     -0.000541

  FREE ENERGIE OF THE ION-ELECTRON SYSTEM (eV)
  free  energy   TOTEN  =      -194.36235415 eV

  energy  without entropy=     -194.36235415  energy(sigma->0) =     -194.36235415

[...]

 d Force = 0.2166680E-03[-0.530E-03, 0.963E-03]  d Energy =-0.1903363E-03 0.407E-03
 d Force =-0.1600170E+00[-0.173E+00,-0.147E+00]  d Ewald  = 0.2275246E+01-0.244E+01

 Steepest descent step on ions:
 trial-energy change:    0.000190  1 .order   -0.000210   -0.001078    0.000658
  (g-gl).g = 0.108E-02      g.g   = 0.108E-02  gl.gl    = 0.000E+00
 g(Force)  = 0.963E-03   g(Stress)= 0.114E-03 ortho     = 0.000E+00
 gamma     =   0.00000
 trial     =   1.00000
 opt step  =   0.31987  (harmonic =   0.62099) maximal distance =0.00091160
 next E    =  -194.362513   (d E  =  -0.00016)

 real space projection operators:
  max/ min on nodes  :       1934.50       1933.48

[...]

 eigenvalue-minimisations  : 28770
 total energy-change (2. order) :-0.4231432E-04  (-0.2819847E-05)
 number of electron     124.0000039 magnetization       4.0000009
 augmentation part       30.1940615 magnetization       2.4697333

 Broyden mixing:
  rms(total) = 0.18141E-02    rms(broyden)= 0.18140E-02
  rms(prec ) = 0.19218E-02
  weight for this iteration     100.00

 eigenvalues of (default mixing * dielectric matrix)
  average eigenvalue GAMMA=   1.0414
  1.9033  0.8489  0.7067  0.7067

[...]

--------------------------------------- Iteration      3(   6)  ---------------------------------------

atom =   3  type =  2  l = 2

[...]

  o =  0.0679  v =  0.0000  0.0000  0.0000  0.0000  0.0000  0.9745  0.2244  0.0000  0.0000 -0.0000      0.0000  0.0000  0.0000  0.0000  0.0000  0.0000  0.0000  0.0000  0.0000  0.0000
  o =  0.1881  v =  0.0000  0.0000  0.0000  0.0000  0.0000 -0.0000  0.0000  0.3482  0.9271 -0.1384      0.0000  0.0000  0.0000  0.0000  0.0000  0.0000  0.0000  0.0000  0.0000  0.0000
  o =  0.1897  v =  0.0000  0.0000  0.0000  0.0000  0.0000  0.2244 -0.9745  0.0000  0.0000 -0.0000      0.0000  0.0000  0.0000  0.0000  0.0000  0.0000  0.0000  0.0000  0.0000  0.0000
  o =  0.2371  v = -0.2004  0.9797  0.0000  0.0000  0.0000  0.0000  0.0000  0.0000  0.0000  0.0000      0.0000  0.0000  0.0000  0.0000  0.0000  0.0000  0.0000  0.0000  0.0000  0.0000
  o =  0.2378  v =  0.0000  0.0000  0.0000  0.0000  0.0000  0.0000 -0.0000  0.1032  0.1088  0.9887      0.0000  0.0000  0.0000  0.0000  0.0000  0.0000  0.0000  0.0000  0.0000  0.0000
  o =  0.2406  v = -0.0000  0.0000 -0.2760 -0.7536 -0.5965  0.0000  0.0000  0.0000  0.0000  0.0000      0.0000  0.0000  0.0000  0.0000  0.0000  0.0000  0.0000  0.0000  0.0000  0.0000
  o =  0.2472  v =  0.0000 -0.0000 -0.1666 -0.5737  0.8019  0.0000  0.0000  0.0000  0.0000  0.0000      0.0000  0.0000  0.0000  0.0000  0.0000  0.0000  0.0000  0.0000  0.0000  0.0000
  o =  0.3373  v =  0.0000  0.0000  0.0000  0.0000  0.0000 -0.0000  0.0000 -0.9317  0.3586  0.0577      0.0000  0.0000  0.0000  0.0000  0.0000  0.0000  0.0000  0.0000  0.0000  0.0000
  o =  0.3877  v = -0.0000  0.0000 -0.9466  0.3208  0.0328  0.0000  0.0000  0.0000  0.0000  0.0000      0.0000  0.0000  0.0000  0.0000  0.0000  0.0000  0.0000  0.0000  0.0000  0.0000
  o =  0.9173  v = -0.9797 -0.2004  0.0000  0.0000  0.0000  0.0000  0.0000  0.0000  0.0000  0.0000      0.0000  0.0000  0.0000  0.0000  0.0000  0.0000  0.0000  0.0000  0.0000  0.0000
atom =   6  type =  2  l = 2

 onsite density matrix

[...]

  0.0739  0.0265  0.0000 -0.0000  0.0000
  0.0265  0.1836 -0.0000  0.0000 -0.0000
  0.0000 -0.0000  0.3182  0.0491 -0.0029
 -0.0000  0.0000  0.0491  0.2078 -0.0084
  0.0000 -0.0000 -0.0029 -0.0084  0.2371

 occupancies and eigenvectors

  o =  0.0678  v =  0.0000  0.0000  0.0000  0.0000  0.0000  0.9747 -0.2235 -0.0000  0.0000 -0.0000      0.0000  0.0000  0.0000  0.0000  0.0000  0.0000  0.0000  0.0000  0.0000  0.0000
  o =  0.1882  v =  0.0000  0.0000  0.0000  0.0000  0.0000 -0.0000 -0.0000 -0.3473  0.9275  0.1384      0.0000  0.0000  0.0000  0.0000  0.0000  0.0000  0.0000  0.0000  0.0000  0.0000
  o =  0.1897  v =  0.0000  0.0000  0.0000  0.0000  0.0000 -0.2235 -0.9747  0.0000 -0.0000 -0.0000      0.0000  0.0000  0.0000  0.0000  0.0000  0.0000  0.0000  0.0000  0.0000  0.0000
  o =  0.2368  v =  0.1974  0.9803  0.0000 -0.0000  0.0000  0.0000  0.0000  0.0000  0.0000  0.0000      0.0000  0.0000  0.0000  0.0000  0.0000  0.0000  0.0000  0.0000  0.0000  0.0000
  o =  0.2377  v =  0.0000  0.0000  0.0000  0.0000  0.0000 -0.0000 -0.0000  0.1027 -0.1091  0.9887      0.0000  0.0000  0.0000  0.0000  0.0000  0.0000  0.0000  0.0000  0.0000  0.0000
  o =  0.2407  v =  0.0000  0.0000 -0.2738  0.7535 -0.5977  0.0000  0.0000  0.0000  0.0000  0.0000      0.0000  0.0000  0.0000  0.0000  0.0000  0.0000  0.0000  0.0000  0.0000  0.0000
  o =  0.2473  v =  0.0000  0.0000  0.1676 -0.5746 -0.8011  0.0000  0.0000  0.0000  0.0000  0.0000      0.0000  0.0000  0.0000  0.0000  0.0000  0.0000  0.0000  0.0000  0.0000  0.0000
  o =  0.3373  v =  0.0000  0.0000  0.0000  0.0000  0.0000  0.0000  0.0000 -0.9321 -0.3576  0.0574      0.0000  0.0000  0.0000  0.0000  0.0000  0.0000  0.0000  0.0000  0.0000  0.0000
  o =  0.3878  v =  0.0000  0.0000 -0.9471 -0.3195  0.0311  0.0000  0.0000  0.0000  0.0000  0.0000      0.0000  0.0000  0.0000  0.0000  0.0000  0.0000  0.0000  0.0000  0.0000  0.0000
  o =  0.9173  v = -0.9803  0.1974 -0.0000  0.0000 -0.0000  0.0000  0.0000  0.0000  0.0000  0.0000      0.0000  0.0000  0.0000  0.0000  0.0000  0.0000  0.0000  0.0000  0.0000  0.0000

 eigenvalue-minimisations  : 18036
 total energy-change (2. order) : 0.4054891E-06  (-0.1347380E-05)
 number of electron     124.0000039 magnetization       4.0000009
 augmentation part       30.1940615 magnetization       2.4697333

 Free energy of the ion-electron system (eV)
  alpha Z        PSCENC =       609.19559795
  Ewald energy   TEWEN  =     -7934.18149585
  -Hartree energ DENC   =     -3413.77522113
  -exchange      EXHF   =         0.00000000
  -V(xc)+E(xc)   XCENC  =       586.90348738
  PAW double counting   =     13710.34350074   -13711.20261687
  entropy T*S    EENTRO =        -0.00000000
  eigenvalues    EBANDS =     -1663.86384800
  atomic energy  EATOM  =     11622.21810193
  Solvation  Ediel_sol  =         0.00000000
  free energy    TOTEN  =      -194.36249384 eV

  energy without entropy =     -194.36249384  energy(sigma->0) =     -194.36249384

 average (electrostatic) potential at core
  the test charge radii are     1.1137  0.9339  0.7215
  (the norm of the test charge is              1.0000)
       1 -49.1332       2 -49.1332       3 -55.8639       4 -55.8632       5 -55.8632
       6 -55.8639       7 -76.3089       8 -76.3098       9 -76.3098      10 -76.3089
      11 -76.3271      12 -76.3250      13 -76.3250      14 -76.3271      15 -75.5450
      16 -75.5450

 E-fermi :   3.4065     XC(G=0): -11.0553     alpha+bet :-10.6880

[...]

 spin component 2

[...]

 k-point    95 :       0.3333   -0.4444   -0.4286
  band No.  band energies     occupation
      1     -38.0671      1.00000
      2     -38.0671      1.00000
      3     -37.6465      1.00000
      4     -37.6453      1.00000
      5     -37.6386      1.00000
      6     -37.6373      1.00000
      7     -36.3254      1.00000
      8     -36.3229      1.00000
      9     -36.3182      1.00000
     10     -36.3149      1.00000
     11     -36.1900      1.00000
     12     -36.1865      1.00000
     13     -36.1544      1.00000
     14     -36.1502      1.00000
     15     -18.7061      1.00000
     16     -18.7057      1.00000
     17     -18.3139      1.00000
     18     -18.3094      1.00000
     19     -18.2975      1.00000
     20     -18.2962      1.00000
     21     -16.6576      1.00000
     22     -16.6249      1.00000
     23     -16.5041      1.00000
     24     -16.4660      1.00000
     25     -16.1427      1.00000
     26     -16.1326      1.00000
     27     -16.0707      1.00000
     28     -16.0555      1.00000
     29     -15.4708      1.00000
     30     -15.4638      1.00000
     31      -3.4228      1.00000
     32      -3.3859      1.00000
     33      -3.1421      1.00000
     34      -3.0769      1.00000
     35      -2.4218      1.00000
     36      -2.3540      1.00000
     37      -2.3200      1.00000
     38      -2.2191      1.00000
     39      -2.1126      1.00000
     40      -2.0448      1.00000
     41      -2.0320      1.00000
     42      -1.9393      1.00000
     43      -1.6164      1.00000
     44      -1.5951      1.00000
     45      -1.3793      1.00000
     46      -1.3503      1.00000
     47      -1.3079      1.00000
     48      -1.2329      1.00000
     49      -1.0084      1.00000
     50      -0.9542      1.00000
     51      -0.3403      1.00000
     52      -0.3082      1.00000
     53      -0.1414      1.00000
     54      -0.1166      1.00000
     55      -0.0646      1.00000
     56      -0.0044      1.00000
     57       0.1637      1.00000
     58       0.1842      1.00000
     59       0.6753      1.00000
     60       0.7650      1.00000
[...]
     64       5.3755      0.00000
     65       5.4562      0.00000
     66       5.4782      0.00000
     67       5.8222      0.00000
     68       5.8682      0.00000
     69       6.1655      0.00000
     70       6.2258      0.00000
     71       6.3868      0.00000
     72       6.4247      0.00000
     73       6.5779      0.00000
     74       6.5873      0.00000
     75       6.8047      0.00000
     76       6.8064      0.00000
     77       7.6575      0.00000
     78       7.7168      0.00000

[...]

 soft charge-density along one line, spin component           2
         0         1         2         3         4         5         6         7         8         9
 total charge-density along one line

------------------------ aborting loop because EDIFF is reached ----------------------------------------

[...]

  FORCE on cell =-STRESS in cart. coord.  units (eV):
  Direction    XX          YY          ZZ          XY          YZ          ZX
  Alpha Z   609.19560   609.19560   609.19560
  Ewald   -2319.16395 -2349.06609 -3265.97038     0.00003     0.00037    -0.00042
  Hartree  1455.34005  1392.39550   565.92044     0.00002     0.00017    -0.00017
  E(xc)    -673.43992  -673.38503  -673.66638     0.00000     0.00000    -0.00000
  Local    -958.70440  -860.52932   940.92642    -0.00006    -0.00053     0.00057
  n-local  -577.37535  -580.69941  -570.40149     0.00000     0.00001     0.00000
  augment   294.15237   293.81349   270.43093    -0.00000    -0.00001     0.00002
  Kinetic  2170.02542  2168.15354  2123.48992     0.00000    -0.00000    -0.00002
  Fock        0.00000     0.00000     0.00000     0.00000     0.00000     0.00000
  Total       0.02982    -0.12173    -0.07494     0.00000     0.00001    -0.00003
  in kB       0.23796    -0.97145    -0.59808     0.00002     0.00011    -0.00022

 VOLUME and BASIS-vectors are now :
  energy-cutoff  :      520.00
  volume of cell :      200.76
      direct lattice vectors                 reciprocal lattice vectors
    11.337716618 -0.000000058  0.000002506     0.088201181  0.000000000 -0.000000020
    -0.000000018  3.579845051 -0.000000186     0.000000001  0.279341699  0.000000015
     0.000001099 -0.000000260  4.946319262    -0.000000045  0.000000011  0.202170533

  length of vectors
    11.337716618  3.579845051  4.946319262     0.088201181  0.279341699  0.202170533

 FORCES acting on ions
    electron-ion (+dipol)            ewald-force                    non-local-force                 convergence-correction
   0.661E-01 -.187E-04 -.147E+03   -.632E-01 0.191E-04 0.143E+03   -.230E-02 -.386E-06 0.343E+01   0.567E-04 0.499E-06 -.445E-02
   0.654E-01 -.634E-05 0.147E+03   -.624E-01 0.547E-05 -.143E+03   -.228E-02 0.145E-05 -.343E+01   0.156E-04 -.623E-06 0.436E-02
   0.443E+01 -.880E-04 -.744E+02   -.522E+01 0.876E-04 0.721E+02   0.661E+00 0.216E-05 0.256E+01   -.253E-02 -.117E-05 -.882E-02
   -.438E+01 -.112E-03 -.744E+02   0.513E+01 0.111E-03 0.721E+02   -.619E+00 0.177E-05 0.257E+01   0.239E-02 0.265E-05 -.876E-02
   -.437E+01 0.995E-04 0.744E+02   0.512E+01 -.996E-04 -.721E+02   -.619E+00 -.297E-05 -.257E+01   0.265E-02 0.135E-05 0.884E-02
   0.442E+01 0.132E-03 0.744E+02   -.521E+01 -.131E-03 -.721E+02   0.661E+00 -.161E-05 -.256E+01   -.268E-02 -.244E-05 0.899E-02
   -.324E+02 0.227E-04 -.204E+03   0.323E+02 -.247E-04 0.225E+03   0.942E-01 0.235E-05 -.209E+02   0.191E-02 -.237E-06 -.609E-02
   0.323E+02 -.654E-05 -.204E+03   -.322E+02 0.734E-05 0.225E+03   -.102E+00 -.115E-05 -.209E+02   -.195E-02 0.483E-07 -.616E-02
   0.323E+02 -.425E-05 0.204E+03   -.322E+02 0.441E-05 -.225E+03   -.102E+00 -.309E-06 0.209E+02   -.192E-02 0.190E-06 0.638E-02
   -.324E+02 -.112E-05 0.204E+03   0.323E+02 0.153E-05 -.225E+03   0.941E-01 -.292E-06 0.209E+02   0.193E-02 0.391E-07 0.638E-02
   -.751E+02 -.936E-04 -.705E+02   0.813E+02 0.103E-03 0.771E+02   -.622E+01 -.612E-05 -.657E+01   -.165E-02 0.316E-06 -.242E-02
   0.750E+02 -.133E-03 -.705E+02   -.812E+02 0.147E-03 0.771E+02   0.620E+01 -.118E-04 -.657E+01   0.165E-02 0.109E-05 -.242E-02
   0.750E+02 0.651E-04 0.705E+02   -.812E+02 -.712E-04 -.771E+02   0.620E+01 0.363E-05 0.657E+01   0.189E-02 -.142E-06 0.227E-02
   -.751E+02 0.136E-03 0.705E+02   0.813E+02 -.150E-03 -.771E+02   -.622E+01 0.130E-04 0.657E+01   -.194E-02 -.148E-05 0.229E-02
   -.153E-02 -.338E-04 0.603E+02   0.593E-02 0.382E-04 -.669E+02   -.476E-02 -.485E-05 0.662E+01   -.749E-05 0.861E-06 0.366E-02
   -.621E-03 0.439E-04 -.603E+02   0.491E-02 -.485E-04 0.669E+02   -.476E-02 0.451E-05 -.662E+01   0.555E-04 -.777E-06 -.381E-02
   -.298E-01 0.651E-06 -.245E-04   -.426E-13 -.147E-13 -.853E-13   0.288E-01 -.723E-06 -.323E-03   -.120E-03 0.178E-06 0.236E-03

 POSITION                                       TOTAL-FORCE (eV/Angst)
      2.83457      2.68488      4.20574         0.000752      0.000000      0.024044
      8.50343      0.89496      0.74058         0.000741     -0.000000     -0.024022
     10.24425      2.68488      3.02507        -0.027413      0.000001     -0.009694
      6.76226      2.68488      3.02480         0.026963      0.000004     -0.010672
      1.09340      0.89496      1.92152         0.026927     -0.000002      0.010637
      4.57539      0.89496      1.92125        -0.027301     -0.000004      0.009684
      9.93380      2.68488      4.66422        -0.015399      0.000000     -0.003034
      7.07316      2.68488      4.66387         0.016425     -0.000000     -0.004740
      1.40430      0.89496      0.28245         0.016421      0.000000      0.004778
      4.26494      0.89496      0.28209        -0.015410      0.000000      0.003028
      0.84625      2.68488      2.64188        -0.002167      0.000004      0.010375
      4.82220      2.68488      2.64175         0.001145      0.000003      0.009471
     10.49106      0.89496      2.30457         0.001169     -0.000003     -0.009477
      6.51511      0.89496      2.30444        -0.002197     -0.000003     -0.010381
      8.50324      2.68488      2.23279        -0.000306      0.000000      0.009886
      2.83438      0.89496      2.71354        -0.000350     -0.000001     -0.009883
    total drift:                               -0.001045      0.000000     -0.000111

  FREE ENERGIE OF THE ION-ELECTRON SYSTEM (eV)
  free  energy   TOTEN  =      -194.36249384 eV

  energy  without entropy=     -194.36249384  energy(sigma->0) =     -194.36249384

 d Force = 0.1268280E-04[-0.335E-03, 0.361E-03]  d Energy = 0.3300303E-03-0.317E-03
 d Force = 0.1116790E+00[ 0.106E+00, 0.118E+00]  d Ewald  =-0.1544781E+01 0.166E+01

 reached required accuracy - stopping structural energy minimisation

 total charge

[...]

 magnetization (x)

# of ion       s       p       d       tot
    1        0.001   0.000   0.003   0.005
    2        0.001   0.000   0.003   0.005
    3        0.007   0.005   1.007   1.020
    4        0.007   0.005   1.007   1.020
    5        0.007   0.005   1.007   1.020
    6        0.007   0.005   1.007   1.020
    7       -0.002  -0.084   0.000  -0.086
    8       -0.002  -0.085   0.000  -0.086
    9       -0.002  -0.085   0.000  -0.086
   10       -0.002  -0.084   0.000  -0.086
   11       -0.000  -0.004   0.000  -0.005
   12       -0.000  -0.004   0.000  -0.004
   13       -0.000  -0.004   0.000  -0.004
   14       -0.000  -0.004   0.000  -0.005
   15        0.000   0.042   0.000   0.042
   16        0.000   0.042   0.000   0.042
tot          0.025  -0.249   4.036   3.812