 vasp.6.1.2 22Jul20 (build Nov 17 2021 18:58:30) complex

 executed on             LinuxIFC date 2022.06.14  23:31:53

 INCAR:
 POTCAR:    PAW_PBE Ca_sv 06Sep2000
 POTCAR:    PAW_PBE Mn_pv 02Aug2007
 POTCAR:    PAW_PBE P 06Sep2000
 POTCAR:    PAW_PBE O 08Apr2002
 POTCAR:    PAW_PBE Ca_sv 06Sep2000
   VRHFIN =Ca: 3s3p4s

   TITEL  = PAW_PBE Ca_sv 06Sep2000
   POMASS =   40.078; ZVAL   =   10.000    mass and valenz
   ENMAX  =  266.622; ENMIN  =  199.967 eV

   TITEL  = PAW_PBE Mn_pv 02Aug2007
   POMASS =   54.938; ZVAL   =   13.000    mass and valenz
   ENMAX  =  269.864; ENMIN  =  202.398 eV

   TITEL  = PAW_PBE P 06Sep2000
   POMASS =   30.974; ZVAL   =    5.000    mass and valenz
   ENMAX  =  255.040; ENMIN  =  191.280 eV

   TITEL  = PAW_PBE O 08Apr2002
   POMASS =   16.000; ZVAL   =    6.000    mass and valenz
   ENMAX  =  400.000; ENMIN  =  300.000 eV

 Optimization of the real space projectors (new method)

 maximal supplied QI-value         = 16.25
 optimisation between [QCUT,QGAM] = [ 11.54, 23.24] = [ 37.28,151.24] Ry
 Optimized for a Real-space Cutoff    1.58 Angstroem

   l    n(q)    QCUT    max X(q) W(low)/X(q) W(high)/X(q)  e(spline)
   0     11    11.539    11.817    0.25E-04    0.22E-05    0.26E-07
   0     11    11.539     8.461    0.39E-04    0.49E-05    0.55E-07
   1     11    11.539     3.957    0.21E-05    0.44E-05    0.32E-07
   1     11    11.539     4.314    0.56E-04    0.44E-04    0.19E-06
   2     10    11.539    14.565    0.25E-03    0.21E-04    0.75E-06
   2     10    11.539    14.552    0.23E-03    0.22E-04    0.72E-06
 Optimization of the real space projectors (new method)

[...]

   l    n(q)    QCUT    max X(q) W(low)/X(q) W(high)/X(q)  e(spline)
   0      8    11.508   160.924    0.96E-04    0.17E-03    0.52E-07
   0      8    11.508   130.086    0.95E-04    0.17E-03    0.51E-07
   1      8    11.508    74.434    0.16E-03    0.74E-04    0.91E-07
   1      8    11.508    49.120    0.16E-03    0.71E-04    0.89E-07
 Optimization of the real space projectors (new method)

 maximal supplied QI-value         = 24.76
 optimisation between [QCUT,QGAM] = [ 11.64, 23.27] = [ 37.91,151.63] Ry
 Optimized for a Real-space Cutoff    1.14 Angstroem

   l    n(q)    QCUT    max X(q) W(low)/X(q) W(high)/X(q)  e(spline)
   0      8    11.635    20.381    0.10E-03    0.33E-03    0.24E-06
   0      8    11.635    15.268    0.11E-03    0.35E-03    0.26E-06
   1      7    11.635     5.964    0.24E-03    0.31E-03    0.30E-06
   1      7    11.635     5.382    0.22E-03    0.25E-03    0.26E-06
  PAW_PBE Ca_sv 06Sep2000               :
  PAW_PBE Mn_pv 02Aug2007               :
  PAW_PBE P 06Sep2000                   :
  PAW_PBE O 08Apr2002                   :

 POSCAR: Ca5 Mn4 P6 O24
  positions in direct lattice
  velocities in cartesian coordinates
 exchange correlation table for  LEXCH =        8
   RHO(1)=    0.500       N(1)  =     2000
   RHO(2)=  100.500       N(2)  =     4000

 ion  position               nearest neighbor table
   1  0.575  0.425  0.511-  17 2.30  22 2.32  15 2.34  19 2.37  26 2.48  36 2.54
   2  0.921  0.985  0.071-  25 2.30  18 2.32  21 2.34  23 2.37  20 2.48  28 2.54
   3  0.380  0.720  0.062-  32 2.43  22 2.50  20 2.51  24 2.52  33 2.52  31 2.56  14 3.00
   4  0.116  0.434  0.777-  38 2.43  18 2.50  26 2.51  27 2.52  16 2.52  35 2.56  14 3.00
   5  0.690  0.667  0.598-  32 2.02  30 2.06  19 2.07  15 2.07  28 2.09
   6  0.191  0.129  0.172-  29 1.88  27 1.99  16 1.99  31 2.09  20 2.12
   7  0.806  0.899  0.829-  38 2.02  34 2.06  23 2.07  21 2.07  36 2.09
   8  0.304  0.324  0.367-  37 1.88  33 1.99  24 1.99  35 2.09  26 2.12
   9  0.248  0.517  0.979-  17 1.54  25 1.54  27 1.57  33 1.57
  10  0.038  0.772  0.415-  34 1.53  28 1.55  20 1.56  24 1.58
  11  0.966  0.232  0.588-  29 1.54  21 1.55  35 1.55  19 1.56
  12  0.458  0.081  0.724-  30 1.53  36 1.55  26 1.56  16 1.58
  13  0.530  0.908  0.264-  37 1.54  15 1.55  31 1.55  23 1.56
  14  0.748  0.482  0.014-  18 1.54  22 1.54  38 1.56  32 1.56   4 3.00   3 3.00
  15  0.581  0.724  0.416-  13 1.55   5 2.07   1 2.34
  16  0.295  0.106  0.910-  12 1.58   6 1.99   4 2.52
  17  0.341  0.505  0.773-   9 1.54   1 2.30
  18  0.896  0.289  0.011-  14 1.54   2 2.32   4 2.50
  19  0.801  0.401  0.560-  11 1.56   5 2.07   1 2.37
  20  0.093  0.929  0.237-  10 1.56   6 2.12   2 2.48   3 2.51
  21  0.915  0.080  0.772-  11 1.55   7 2.07   2 2.34
  22  0.600  0.485  0.207-  14 1.54   1 2.32   3 2.50
  23  0.695  0.936  0.095-  13 1.56   7 2.07   2 2.37
  24  0.201  0.586  0.390-  10 1.58   8 1.99   3 2.52
  25  0.155  0.722  0.991-   9 1.54   2 2.30
  26  0.402  0.259  0.568-  12 1.56   8 2.12   1 2.48   4 2.51
  27  0.125  0.407  0.075-   9 1.57   6 1.99   4 2.52
  28  0.884  0.774  0.406-  10 1.55   5 2.09   2 2.54
  29  0.063  0.142  0.423-  11 1.54   6 1.88
  30  0.498  0.890  0.708-  12 1.53   5 2.06
  31  0.415  0.901  0.197-  13 1.55   6 2.09   3 2.56
  32  0.664  0.546  0.872-  14 1.56   5 2.02   3 2.43
  33  0.372  0.420  0.089-   9 1.57   8 1.99   3 2.52
  34  0.998  0.788  0.605-  10 1.53   7 2.06
  35  0.081  0.299  0.595-  11 1.55   8 2.09   4 2.56
  36  0.612  0.090  0.722-  12 1.55   7 2.09   1 2.54
  37  0.433  0.073  0.354-  13 1.54   8 1.88
  38  0.832  0.624  0.949-  14 1.56   7 2.02   4 2.43

IMPORTANT INFORMATION: All symmetrisations will be switched off!
NOSYMM: (Re-)initialisation of all symmetry stuff for point group C_1.

                                     Primitive cell

  volume of cell :     514.4809

  direct lattice vectors                    reciprocal lattice vectors
     2.709646768  8.253406816  4.637080956    -0.004781335  0.127338337 -0.008198988
    -0.139935649  0.548058786  8.593496824    -0.060770975 -0.046539591  0.118345585
     7.556876152  0.547464398  4.095780199     0.132918905 -0.046521136  0.005131370

  length of vectors
     9.847001040  8.612092549  8.612868854     0.127691568  0.140942266  0.140918353

  position of ions in fractional coordinates (direct lattice)
     0.574862292  0.424580083  0.511272081
     0.921072150  0.984520555  0.071341330
     0.380314029  0.719549465  0.061880046
     0.115552627  0.434152480  0.776566291
     0.689829805  0.666769323  0.597628062
     0.191389229  0.129001269  0.171884866
     0.806056155  0.898504184  0.829038183
     0.304438153  0.324102446  0.366990630
     0.248140881  0.517148352  0.978636032
     0.037881274  0.771903128  0.415067398
     0.965710701  0.231667166  0.587792078
     0.458089914  0.080828719  0.724011951
     0.530101765  0.908212895  0.264419229
     0.748014701  0.481846219  0.014101038
     0.581302939  0.723799435  0.416402221
     0.294921427  0.105855606  0.910431711
     0.341318417  0.504970439  0.773314838
     0.896204936  0.288569166  0.011265274
     0.800959460  0.400686319  0.560391764
     0.093353773  0.928500715  0.236634103
     0.914826807  0.079501360  0.772131026
     0.599825413  0.484733778  0.207357822
     0.694657028  0.935866669  0.095296520
     0.201259461  0.585587894  0.389858534
     0.154947718  0.722465511  0.990952015
     0.402378639  0.259293497  0.567559576
     0.124626114  0.407348404  0.075196376
     0.884125141  0.774134666  0.405548335
     0.062526471  0.142391718  0.422774708
     0.497844885  0.890415210  0.707959531
     0.414883837  0.900753690  0.197249065
     0.664258807  0.546335114  0.871788590
     0.371509031  0.420172354  0.088726183
     0.998114731  0.788115579  0.605373289
     0.080871055  0.299066972  0.595060108
     0.611952586  0.090294797  0.721597932
     0.432916987  0.073022206  0.354130299
     0.831720975  0.624254046  0.949379245

  ion indices of the primitive-cell ions
   primitive index   ion index
                 1           1
                 2           2
                 3           3
                 4           4
                 5           5
                 6           6
                 7           7
                 8           8
                 9           9
                10          10
                11          11
                12          12
                13          13
                14          14
                15          15
                16          16
                17          17
                18          18
                19          19
                20          20
                21          21
                22          22
                23          23
                24          24
                25          25
                26          26
                27          27
                28          28
                29          29
                30          30
                31          31
                32          32
                33          33
                34          34
                35          35
                36          36
                37          37
                38          38

 KPOINTS: Fully automatic kpoint scheme

Automatic generation of k-mesh.
 generate k-points for:    4    5    5
Space group operators:
 irot       det(A)        alpha          n_x          n_y          n_z        tau_x        tau_y        tau_z
    1     1.000000     0.000000     1.000000     0.000000     0.000000     0.000000     0.000000     0.000000

 Subroutine IBZKPT returns following result:

 Found     51 irreducible k-points:

 Following reciprocal coordinates:
            Coordinates               Weight
  0.000000  0.000000  0.000000      1.000000
  0.250000  0.000000 -0.000000      2.000000
  0.500000  0.000000  0.000000      1.000000
 -0.000000  0.200000 -0.000000      2.000000
  0.250000  0.200000 -0.000000      2.000000
  0.500000  0.200000  0.000000      2.000000
 -0.250000  0.200000  0.000000      2.000000
 -0.000000  0.400000 -0.000000      2.000000
  0.250000  0.400000 -0.000000      2.000000
  0.500000  0.400000 -0.000000      2.000000
 -0.250000  0.400000 -0.000000      2.000000
 -0.000000  0.000000  0.200000      2.000000
  0.250000  0.000000  0.200000      2.000000
  0.500000  0.000000  0.200000      2.000000
 -0.250000 -0.000000  0.200000      2.000000
  0.000000  0.200000  0.200000      2.000000
  0.250000  0.200000  0.200000      2.000000
  0.500000  0.200000  0.200000      2.000000
 -0.250000  0.200000  0.200000      2.000000
 -0.000000  0.400000  0.200000      2.000000
  0.250000  0.400000  0.200000      2.000000
  0.500000  0.400000  0.200000      2.000000
 -0.250000  0.400000  0.200000      2.000000
  0.000000 -0.400000  0.200000      2.000000
  0.250000 -0.400000  0.200000      2.000000
  0.500000 -0.400000  0.200000      2.000000
 -0.250000 -0.400000  0.200000      2.000000
  0.000000 -0.200000  0.200000      2.000000
  0.250000 -0.200000  0.200000      2.000000
  0.500000 -0.200000  0.200000      2.000000
 -0.250000 -0.200000  0.200000      2.000000
 -0.000000 -0.000000  0.400000      2.000000
  0.250000  0.000000  0.400000      2.000000
  0.500000  0.000000  0.400000      2.000000
 -0.250000 -0.000000  0.400000      2.000000
 -0.000000  0.200000  0.400000      2.000000
  0.250000  0.200000  0.400000      2.000000
  0.500000  0.200000  0.400000      2.000000
 -0.250000  0.200000  0.400000      2.000000
[...]
     47     -15.9708      1.00000
     48     -15.8864      1.00000
     49     -15.8572      1.00000
     50     -15.7473      1.00000
     51     -15.6769      1.00000
     52     -15.5595      1.00000
     53      -7.0176      1.00000
     54      -6.3211      1.00000
     55      -6.2991      1.00000
     56      -6.0164      1.00000
     57      -5.7541      1.00000
     58      -5.6967      1.00000
     59      -4.9600      1.00000
     60      -4.4966      1.00000
[...]
    166       9.8497      0.00000
    167       9.8710      0.00000
    168       9.9458      0.00000
    169       9.9662      0.00000
    170       9.9957      0.00000
    171      10.2255      0.00000
    172      10.2771      0.00000
    173      10.2908      0.00000
    174      10.4275      0.00000
    175      10.6117      0.00000
    176      10.7907      0.00000
    177      11.0170      0.00000
    178      11.1615      0.00000
    179      11.2450      0.00000
    180      11.3535      0.00000

[...]

 spin component 2

[...]

 k-point    51 :      -0.2500   -0.2000    0.4000
  band No.  band energies     occupation
      1     -43.5924      1.00000
      2     -43.5836      1.00000
      3     -43.2058      1.00000
      4     -43.1982      1.00000
      5     -42.8947      1.00000
      6     -42.8894      1.00000
      7     -42.5377      1.00000
      8     -42.5258      1.00000
      9     -42.4502      1.00000
     10     -42.4389      1.00000
     11     -42.2699      1.00000
     12     -42.2623      1.00000
     13     -36.8228      1.00000
     14     -36.8223      1.00000
     15     -36.5123      1.00000
     16     -36.5110      1.00000
     17     -19.1354      1.00000
     18     -19.1206      1.00000
     19     -18.7427      1.00000
     20     -18.7034      1.00000
     21     -18.6177      1.00000
     22     -18.5670      1.00000
     23     -18.0477      1.00000
     24     -18.0126      1.00000
     25     -17.9495      1.00000
     26     -17.9174      1.00000
     27     -17.8152      1.00000
     28     -17.7551      1.00000
     29     -17.6954      1.00000
     30     -17.6783      1.00000
     31     -17.6134      1.00000
     32     -17.5855      1.00000
     33     -17.5388      1.00000
     34     -17.4711      1.00000
     35     -16.5725      1.00000
     36     -16.5408      1.00000
     37     -16.4057      1.00000
     38     -16.3735      1.00000
     39     -16.2627      1.00000
     40     -16.2175      1.00000
     41     -16.1301      1.00000
     42     -16.0531      1.00000
     43     -16.0343      1.00000
     44     -16.0103      1.00000
     45     -15.9736      1.00000
     46     -15.9349      1.00000
     47     -15.9266      1.00000
     48     -15.8431      1.00000
     49     -15.8165      1.00000
     50     -15.7567      1.00000
     51     -15.6187      1.00000
     52     -15.5421      1.00000
     53      -6.5338      1.00000
     54      -6.4150      1.00000
     55      -6.1592      1.00000
     56      -6.0407      1.00000
     57      -5.6836      1.00000
     58      -5.6244      1.00000
     59      -4.5665      1.00000
     60      -4.4086      1.00000
[...]
    166       9.5987      0.00000
    167       9.8522      0.00000
    168       9.9804      0.00000
    169      10.1854      0.00000
    170      10.4289      0.00000
    171      10.5891      0.00000
    172      10.7016      0.00000
    173      10.8315      0.00000
    174      10.8900      0.00000
    175      11.0255      0.00000
    176      11.1459      0.00000
    177      11.2143      0.00000
    178      11.3642      0.00000
    179      11.6155      0.00000
    180      11.7062      0.00000

 soft charge-density along one line, spin component           1
         0         1         2         3         4         5         6         7         8         9
 total charge-density along one line

 soft charge-density along one line, spin component           2
         0         1         2         3         4         5         6         7         8         9
 total charge-density along one line

------------------------ aborting loop because EDIFF is reached ----------------------------------------

 total charge

# of ion       s       p       d       tot
    1        2.023   5.865   0.222   8.110
    2        2.023   5.865   0.222   8.109
    3        2.018   5.858   0.212   8.089
    4        2.018   5.858   0.213   8.089
    5        0.214   6.212   4.870  11.295
    6        0.245   6.260   4.862  11.367
    7        0.213   6.212   4.870  11.295
    8        0.245   6.260   4.862  11.367
    9        0.912   1.495   0.000   2.408
   10        0.913   1.492   0.000   2.405
   11        0.907   1.489   0.000   2.397
   12        0.913   1.492   0.000   2.405
   13        0.907   1.489   0.000   2.397
   14        0.913   1.507   0.000   2.420
   15        1.560   3.596   0.000   5.157
   16        1.561   3.585   0.000   5.146
   17        1.564   3.583   0.000   5.147
   18        1.566   3.581   0.000   5.147
   19        1.560   3.591   0.000   5.151
   20        1.563   3.589   0.000   5.152
   21        1.560   3.597   0.000   5.157
   22        1.566   3.581   0.000   5.147
   23        1.560   3.590   0.000   5.151
   24        1.561   3.585   0.000   5.146
   25        1.564   3.583   0.000   5.147
   26        1.563   3.589   0.000   5.152
   27        1.565   3.564   0.000   5.129
   28        1.562   3.576   0.000   5.139
   29        1.561   3.610   0.000   5.171
   30        1.566   3.584   0.000   5.150
   31        1.563   3.574   0.000   5.137
   32        1.562   3.594   0.000   5.155
   33        1.565   3.564   0.000   5.129
   34        1.566   3.584   0.000   5.150
   35        1.563   3.574   0.000   5.137
   36        1.562   3.576   0.000   5.139
   37        1.561   3.610   0.000   5.171
   38        1.562   3.594   0.000   5.156
tot         51.969 143.411  20.334 215.714

 magnetization (x)

[...]

  FORCE on cell =-STRESS in cart. coord.  units (eV):
  Direction    XX          YY          ZZ          XY          YZ          ZX
  Alpha Z   803.95693   803.95693   803.95693
  Ewald   -4463.08152 -5749.05098 -4226.65929  -197.89476  -339.27796   210.61584
  Hartree  3010.09743  2108.94028  3209.09187  -129.19524  -221.52437   176.44282
  E(xc)   -1329.52455 -1330.63274 -1329.49844    -0.32513    -0.55697     0.02822
  Local   -2589.52245  -411.66637 -3022.45872   324.39411   556.16101  -384.81802
  n-local  -591.20455  -595.93276  -591.04958    -1.69441    -2.90596     0.13890
  augment   610.08393   614.97807   609.06257     1.59170     2.75969    -0.89703
  Kinetic  4549.08613  4559.24260  4547.45713     3.09328     5.28697    -1.51353
  Fock        0.00000     0.00000     0.00000     0.00000     0.00000     0.00000
  Total      -0.10866    -0.16498    -0.09753    -0.03046    -0.05760    -0.00281
  in kB      -0.33839    -0.51377    -0.30372    -0.09485    -0.17936    -0.00874

 VOLUME and BASIS-vectors are now :
  energy-cutoff  :      520.00
  volume of cell :      514.48
      direct lattice vectors                 reciprocal lattice vectors
     2.709646768  8.253406816  4.637080956    -0.004781335  0.127338337 -0.008198988
    -0.139935649  0.548058786  8.593496824    -0.060770975 -0.046539591  0.118345585
     7.556876152  0.547464398  4.095780199     0.132918905 -0.046521136  0.005131370

  length of vectors
     9.847001040  8.612092549  8.612868854     0.127691568  0.140942266  0.140918353

 FORCES acting on ions:
    Electron-Ion                     Ewald-Force                    Non-Local-Force
   0.424E+02 -.690E+02 0.306E+02   -.424E+02 0.682E+02 -.290E+02   -.145E-01 0.818E+00 -.160E+01
   -.581E+01 0.692E+02 -.516E+02   0.444E+01 -.683E+02 0.508E+02   0.138E+01 -.823E+00 0.789E+00
   0.536E+02 -.134E+02 0.120E+02   -.528E+02 0.138E+02 -.133E+02   -.838E+00 -.466E+00 0.124E+01
   0.164E+02 0.130E+02 -.525E+02   -.149E+02 -.135E+02 0.523E+02   -.151E+01 0.481E+00 0.112E+00
   0.758E+02 0.266E+02 0.247E+02   -.756E+02 -.261E+02 -.249E+02   -.300E+00 -.426E+00 0.208E+00
   -.306E+02 0.923E+02 -.246E+02   0.331E+02 -.930E+02 0.257E+02   -.246E+01 0.657E+00 -.108E+01
   0.148E+02 -.268E+02 -.784E+02   -.145E+02 0.263E+02 0.783E+02   -.304E+00 0.434E+00 0.173E+00
   0.651E+01 -.923E+02 0.385E+02   -.620E+01 0.929E+02 -.411E+02   -.269E+00 -.650E+00 0.268E+01
   0.632E+02 -.152E+00 -.371E+02   -.650E+02 0.135E+00 0.381E+02   0.191E+01 0.110E-01 -.111E+01
   0.174E+01 0.337E+02 -.351E+02   -.827E+00 -.357E+02 0.359E+02   -.959E+00 0.206E+01 -.786E+00
   -.248E+02 0.201E+02 0.197E+02   0.244E+02 -.197E+02 -.201E+02   0.401E+00 -.485E+00 0.350E+00
   0.317E+02 -.337E+02 0.156E+02   -.319E+02 0.356E+02 -.168E+02   0.193E+00 -.205E+01 0.121E+01
   -.292E+02 -.205E+02 0.117E+02   0.292E+02 0.200E+02 -.112E+02   -.100E+00 0.484E+00 -.501E+00
   -.789E+02 0.916E-01 0.460E+02   0.795E+02 -.842E-01 -.463E+02   -.604E+00 -.173E-01 0.357E+00
   0.778E+01 0.496E+02 0.865E+02   0.149E+02 -.438E+02 -.104E+03   -.227E+02 -.576E+01 0.172E+02
   0.738E+02 0.401E+02 0.763E+02   -.612E+02 -.632E+02 -.778E+02   -.126E+02 0.231E+02 0.154E+01
   0.128E+03 -.601E+02 -.735E+02   -.157E+03 0.744E+02 0.648E+02   0.289E+02 -.142E+02 0.866E+01
   -.956E+02 -.633E+01 0.104E+03   0.106E+03 0.313E+02 -.125E+03   -.103E+02 -.250E+02 0.210E+02
   0.603E+02 0.447E+02 0.980E+02   -.751E+02 -.680E+02 -.912E+02   0.148E+02 0.233E+02 -.680E+01
   0.571E+02 0.100E+03 -.934E+01   -.823E+02 -.945E+02 0.253E+02   0.252E+02 -.584E+01 -.160E+02
   -.719E+02 -.501E+02 -.488E+02   0.980E+02 0.444E+02 0.375E+02   -.262E+02 0.569E+01 0.113E+02
   -.137E+03 0.634E+01 0.325E+02   0.160E+03 -.313E+02 -.312E+02   -.233E+02 0.250E+02 -.129E+01
   -.552E+02 -.448E+02 -.101E+03   0.419E+02 0.680E+02 0.110E+03   0.133E+02 -.233E+02 -.955E+01
   -.304E+02 -.403E+02 -.102E+03   0.379E+02 0.634E+02 0.918E+02   -.749E+01 -.232E+02 0.101E+02
   0.127E+03 0.604E+02 -.754E+02   -.133E+03 -.746E+02 0.105E+03   0.663E+01 0.142E+02 -.295E+02
   0.360E+02 -.100E+03 -.452E+02   -.623E+02 0.942E+02 0.593E+02   0.262E+02 0.590E+01 -.141E+02
   0.156E+02 0.190E+03 -.105E+03   -.874E+01 -.219E+03 0.923E+02   -.683E+01 0.288E+02 0.129E+02
   0.123E+03 0.651E+02 -.697E+01   -.137E+03 -.901E+02 -.783E+01   0.140E+02 0.250E+02 0.148E+02
   -.951E+02 0.835E+02 0.563E+02   0.841E+02 -.747E+02 -.796E+02   0.109E+02 -.873E+01 0.234E+02
   0.607E+02 0.100E+03 0.602E+02   -.619E+02 -.102E+03 -.929E+02   0.120E+01 0.179E+01 0.327E+02
   -.716E+02 -.518E+02 0.105E+03   0.570E+02 0.355E+02 -.127E+03   0.146E+02 0.163E+02 0.225E+02
   -.438E+02 0.379E+02 0.128E+03   0.231E+02 -.538E+02 -.141E+03   0.207E+02 0.159E+02 0.130E+02
   0.993E+02 -.190E+03 0.380E+02   -.846E+02 0.219E+03 -.377E+02   -.147E+02 -.288E+02 -.325E+00
   -.228E+02 -.100E+03 -.825E+02   0.507E+02 0.102E+03 0.996E+02   -.279E+02 -.176E+01 -.171E+02
   -.126E+03 0.519E+02 0.107E+02   0.139E+03 -.356E+02 0.131E+02   -.124E+02 -.163E+02 -.238E+02
   0.668E+02 -.648E+02 -.103E+03   -.609E+02 0.899E+02 0.123E+03   -.595E+01 -.251E+02 -.195E+02
   -.963E+02 -.829E+02 0.559E+02   0.111E+03 0.741E+02 -.350E+02   -.151E+02 0.885E+01 -.208E+02
   -.132E+03 -.377E+02 -.247E+02   0.133E+03 0.536E+02 0.492E+02   -.107E+01 -.159E+02 -.245E+02
   0.135E+02 -.190E+00 -.804E+01   0.114E-12 0.128E-12 0.220E-12   -.135E+02 0.181E+00 0.803E+01

 POSITION                                       TOTAL-FORCE (eV/Angst)
      5.36188      5.25717      8.40837         0.011312      0.000705     -0.005862
      2.89713      8.18062     13.02376         0.012935      0.001570     -0.002740
      1.39745      3.56712      8.20044        -0.002997      0.006785     -0.003911
      6.12077      1.61679      7.44736        -0.000283     -0.001907      0.002015
      6.29209      6.38605     11.37643        -0.006759      0.009609     -0.003974
      1.79946      1.74441      2.70006         0.012789     -0.000675     -0.010208
      8.32333      7.59901     14.85460         0.000415     -0.009809      0.008217
      3.55287      2.89119      5.69999         0.016057      0.004243     -0.007451
      7.99544      2.86720      9.60304         0.006349     -0.006239     -0.006819
      3.13124      0.96293      8.50903        -0.008581     -0.005664      0.004468
      7.02619      8.41917      8.87638        -0.014729      0.002165     -0.002527
      6.70122      4.22147      5.78420        -0.002002      0.002381     -0.003537
      3.30748      5.01766     11.34585        -0.000673     -0.002442      0.006423
      2.06599      6.44547      7.66710         0.001480     -0.008891     -0.005755
      4.62054      5.42238     10.62101        -0.008763     -0.009287      0.002029
      7.66434      2.99055      6.00617        -0.011303      0.003810      0.010250
      6.69803      3.51716      9.08951         0.002585      0.004896     -0.001148
      2.47315      7.56106      6.68173        -0.006318      0.017461     -0.005590
      6.34906      7.13704      9.45265        -0.005011      0.005243     -0.000759
      1.91124      1.40891      9.38116        -0.012113      0.019222      0.009062
      8.30263      8.01672      8.08780        -0.009172      0.011597      0.011950
      3.12446      5.32979      7.79629         0.000347     -0.011872      0.009402
      2.47146      6.29837     11.65386         0.001718     -0.007488      0.010260
      3.40951      2.19545      7.56228        -0.012487     -0.009367      0.007344
      7.80726      2.21731     10.98573         0.003605     -0.003157     -0.000125
      5.34300      3.77382      6.41870        -0.011579     -0.015132      0.005895
      0.84894      1.29301      4.38644        -0.000138     -0.008803     -0.000253
      5.35202      7.94334     12.41332         0.003950      0.007675     -0.014252
      3.34436      0.82555      3.24518        -0.004880      0.025125     -0.013360
      6.57435      4.98450     12.85997         0.018706     -0.001089      0.008639
      2.48873      4.02586     10.47236        -0.001447      0.002284      0.013720
      8.31145      6.25910     11.34581         0.009847      0.011096     -0.006162
      1.61835      3.34507      5.69687        -0.003500      0.008427      0.005427
      7.16898      9.00120     13.88048         0.003840      0.005221     -0.022762
      4.67408      1.15714      5.38227        -0.012442     -0.006305     -0.006841
      7.09857      5.49523      6.56913         0.009677     -0.013075      0.004499
      3.83895      3.80693      4.08543         0.005767     -0.020025      0.011772
      9.34066      7.72641     13.10973         0.013798     -0.008289     -0.007336
    total drift:                                0.006683     -0.009018     -0.008675

  FREE ENERGIE OF THE ION-ELECTRON SYSTEM (eV)
  free  energy   TOTEN  =      -285.38949022 eV

  energy  without entropy=     -285.38536721  energy(sigma->0) =     -285.38742872

 reached required accuracy - stopping structural energy minimisation

 total charge

[...]

 magnetization (x)

# of ion       s       p       d       tot
    1        0.000   0.000   0.003   0.003
    2        0.000   0.000   0.003   0.003
    3        0.000   0.000   0.002   0.002
    4        0.000   0.000   0.002   0.002
    5        0.024   0.034   4.155   4.212
    6        0.027   0.032   3.852   3.912
    7        0.024   0.034   4.158   4.215
    8        0.027   0.032   3.849   3.909
    9        0.003   0.007   0.000   0.010
   10        0.008   0.015   0.000   0.023
   11        0.006   0.014   0.000   0.020
   12        0.008   0.015   0.000   0.023
   13        0.006   0.014   0.000   0.020
   14        0.004   0.008   0.000   0.012
   15        0.004   0.022   0.000   0.026
   16        0.004   0.003   0.000   0.006
   17        0.000   0.003   0.000   0.003
   18        0.001   0.006   0.000   0.007
   19        0.004   0.022   0.000   0.026
   20        0.006   0.028   0.000   0.034
   21        0.004   0.022   0.000   0.026
   22        0.001   0.006   0.000   0.007
   23        0.004   0.022   0.000   0.026
   24        0.004   0.003   0.000   0.006
   25        0.000   0.003   0.000   0.003
   26        0.006   0.028   0.000   0.034
   27        0.003   0.021   0.000   0.024
   28        0.006   0.039   0.000   0.045
   29        0.003   0.045   0.000   0.049
   30        0.005   0.004   0.000   0.009
   31        0.005   0.041   0.000   0.047
   32        0.004   0.024   0.000   0.028
   33        0.003   0.021   0.000   0.024
   34        0.005   0.004   0.000   0.009
   35        0.005   0.041   0.000   0.047
   36        0.006   0.039   0.000   0.045
   37        0.003   0.045   0.000   0.049
   38        0.004   0.024   0.000   0.028
tot          0.231   0.721  16.022  16.975