 vasp.6.1.2 22Jul20 (build Feb 09 2022 12:23:39) complex

 executed on             LinuxIFC date 2022.02.23  11:04:32

 INCAR:
 POTCAR:    PAW_PBE Ca_sv 06Sep2000
 POTCAR:    PAW_PBE V_pv 07Sep2000
 POTCAR:    PAW_PBE P 06Sep2000
 POTCAR:    PAW_PBE O 08Apr2002
 POTCAR:    PAW_PBE Ca_sv 06Sep2000
   VRHFIN =Ca: 3s3p4s

   TITEL  = PAW_PBE Ca_sv 06Sep2000
   POMASS =   40.078; ZVAL   =   10.000    mass and valenz
   ENMAX  =  266.622; ENMIN  =  199.967 eV

   TITEL  = PAW_PBE V_pv 07Sep2000
   POMASS =   50.941; ZVAL   =   11.000    mass and valenz
   ENMAX  =  263.673; ENMIN  =  197.755 eV

   TITEL  = PAW_PBE P 06Sep2000
   POMASS =   30.974; ZVAL   =    5.000    mass and valenz
   ENMAX  =  255.040; ENMIN  =  191.280 eV

   TITEL  = PAW_PBE O 08Apr2002
   POMASS =   16.000; ZVAL   =    6.000    mass and valenz
   ENMAX  =  400.000; ENMIN  =  300.000 eV

 Optimization of the real space projectors (new method)

 maximal supplied QI-value         = 16.25
 optimisation between [QCUT,QGAM] = [ 11.54, 23.24] = [ 37.28,151.24] Ry
 Optimized for a Real-space Cutoff    1.58 Angstroem

   l    n(q)    QCUT    max X(q) W(low)/X(q) W(high)/X(q)  e(spline)
   0     11    11.539    11.817    0.25E-04    0.22E-05    0.26E-07
   0     11    11.539     8.461    0.39E-04    0.49E-05    0.55E-07
   1     11    11.539     3.957    0.21E-05    0.44E-05    0.32E-07
   1     11    11.539     4.314    0.56E-04    0.44E-04    0.19E-06
   2     10    11.539    14.565    0.25E-03    0.21E-04    0.75E-06
   2     10    11.539    14.552    0.23E-03    0.22E-04    0.72E-06
 Optimization of the real space projectors (new method)

[...]

   l    n(q)    QCUT    max X(q) W(low)/X(q) W(high)/X(q)  e(spline)
   0      8    11.508   160.924    0.96E-04    0.17E-03    0.52E-07
   0      8    11.508   130.086    0.95E-04    0.17E-03    0.51E-07
   1      8    11.508    74.434    0.16E-03    0.74E-04    0.91E-07
   1      8    11.508    49.120    0.16E-03    0.71E-04    0.89E-07
 Optimization of the real space projectors (new method)

 maximal supplied QI-value         = 24.76
 optimisation between [QCUT,QGAM] = [ 11.64, 23.27] = [ 37.91,151.63] Ry
 Optimized for a Real-space Cutoff    1.14 Angstroem

   l    n(q)    QCUT    max X(q) W(low)/X(q) W(high)/X(q)  e(spline)
   0      8    11.635    20.381    0.10E-03    0.33E-03    0.24E-06
   0      8    11.635    15.268    0.11E-03    0.35E-03    0.26E-06
   1      7    11.635     5.964    0.24E-03    0.31E-03    0.30E-06
   1      7    11.635     5.382    0.22E-03    0.25E-03    0.26E-06
  PAW_PBE Ca_sv 06Sep2000               :
  PAW_PBE V_pv 07Sep2000                :
  PAW_PBE P 06Sep2000                   :
  PAW_PBE O 08Apr2002                   :

 POSCAR: Ca1 V4 P6 O24
  positions in direct lattice
  velocities in cartesian coordinates

 METAGGA = SCAN     LMAXTAU =  6    LMIXTAU =  F

 ion  position               nearest neighbor table
   1  0.507  0.507  0.478-  12 2.38  21 2.40  19 2.41  16 2.44  14 2.44  23 2.44
   2  0.644  0.646  0.642-  29 1.82  27 1.87  25 1.88  12 1.94  16 1.98  14 2.01
   3  0.139  0.140  0.146-  17 1.83  24 1.90  15 1.92  13 1.93  28 1.95  26 1.96
   4  0.852  0.850  0.858-  22 1.85  33 1.88  20 1.91  18 1.93  31 1.96  35 1.96
   5  0.349  0.350  0.354-  32 1.82  34 1.86  30 1.88  19 1.96  23 1.99  21 2.00
   6  0.251  0.526  0.960-  30 1.52  14 1.53  24 1.53  22 1.53
   7  0.035  0.744  0.469-  31 1.51  25 1.52  21 1.53  17 1.54
   8  0.959  0.248  0.530-  18 1.51  26 1.53  16 1.53  32 1.55
   9  0.464  0.032  0.748-  13 1.51  27 1.53  23 1.54  33 1.54
  10  0.530  0.963  0.246-  20 1.52  28 1.52  34 1.52  12 1.55
  11  0.746  0.467  0.036-  15 1.51  35 1.53  19 1.53  29 1.54
  12  0.603  0.759  0.398-  10 1.55   2 1.94   1 2.38
  13  0.309  0.021  0.949-   9 1.51   3 1.93
  14  0.398  0.592  0.755-   6 1.53   2 2.01   1 2.44
  15  0.950  0.312  0.016-  11 1.51   3 1.92
  16  0.758  0.398  0.601-   8 1.53   2 1.98   1 2.44
  17  0.024  0.953  0.314-   7 1.54   3 1.83
  18  0.977  0.044  0.682-   8 1.51   4 1.93
  19  0.596  0.391  0.235-  11 1.53   5 1.96   1 2.41
  20  0.686  0.980  0.043-  10 1.52   4 1.91
  21  0.239  0.600  0.394-   7 1.53   5 2.00   1 2.40
  22  0.045  0.681  0.970-   6 1.53   4 1.85
  23  0.406  0.239  0.595-   9 1.54   5 1.99   1 2.44
  24  0.261  0.331  0.989-   6 1.53   3 1.90
  25  0.877  0.700  0.490-   7 1.52   2 1.88
  26  0.974  0.272  0.336-   8 1.53   3 1.96
  27  0.489  0.881  0.690-   9 1.53   2 1.87
  28  0.340  0.971  0.267-  10 1.52   3 1.95
  29  0.691  0.509  0.872-  11 1.54   2 1.82
  30  0.300  0.503  0.116-   6 1.52   5 1.88
  31  0.015  0.724  0.663-   7 1.51   4 1.96
  32  0.119  0.304  0.499-   8 1.55   5 1.82
  33  0.661  1.000  0.739-   9 1.54   4 1.88
  34  0.495  0.120  0.301-  10 1.52   5 1.86
  35  0.724  0.654  0.033-  11 1.53   4 1.96

IMPORTANT INFORMATION: All symmetrisations will be switched off!
NOSYMM: (Re-)initialisation of all symmetry stuff for point group C_1.

                                     Primitive cell

  volume of cell :     431.1116

  direct lattice vectors                    reciprocal lattice vectors
     2.618295372  6.936722928  4.521752464    -0.001645024  0.146789168 -0.003080360
     0.290532574  0.186125443  8.714326184    -0.071299775 -0.050138127  0.118201553
     7.413509324  0.178511842  4.547586587     0.138264083 -0.049877949 -0.003544355

  length of vectors
     8.684459741  8.721154322  8.698995961     0.146830700  0.146864212  0.147028326

  position of ions in fractional coordinates (direct lattice)
     0.506845098  0.507476478  0.478022629
     0.643786821  0.645790109  0.642170542
     0.138747636  0.140152741  0.145671132
     0.852072779  0.850158180  0.857707246
     0.348615891  0.350341723  0.353546709
     0.250722163  0.525663569  0.959714700
     0.035412980  0.744460731  0.468877166
     0.959490612  0.248414289  0.530339360
     0.463637566  0.032263945  0.747871250
     0.529898284  0.962551446  0.246110039
     0.746211763  0.466523316  0.035984394
     0.603025186  0.759100757  0.397535500
     0.308598634  0.021150046  0.949078689
     0.398476100  0.591594112  0.755301681
     0.949769652  0.312084106  0.015535940
     0.757854588  0.398131748  0.600670903
     0.023796394  0.952860951  0.313734261
     0.977403251  0.044167203  0.682018541
     0.596037263  0.391239284  0.235267353
     0.685956988  0.979863681  0.042885707
     0.238763397  0.599901736  0.394349163
     0.044918682  0.681490837  0.970328752
     0.405697692  0.238517288  0.594793066
     0.261166355  0.330587066  0.989111500
     0.877390460  0.699773199  0.489614542
     0.974106044  0.272479547  0.335548761
     0.488699927  0.881194989  0.690415228
     0.340097383  0.971228036  0.266706441
     0.691040275  0.508697064  0.872163568
     0.299833872  0.503476275  0.115508756
     0.015344130  0.723665573  0.663022238
     0.118819889  0.303807651  0.499001750
     0.661273836  0.999594561  0.739233456
     0.494930507  0.119950412  0.301108340
     0.723957902  0.654047352  0.033450697

  ion indices of the primitive-cell ions
   primitive index   ion index
                 1           1
                 2           2
                 3           3
                 4           4
                 5           5
                 6           6
                 7           7
                 8           8
                 9           9
                10          10
                11          11
                12          12
                13          13
                14          14
                15          15
                16          16
                17          17
                18          18
                19          19
                20          20
                21          21
                22          22
                23          23
                24          24
                25          25
                26          26
                27          27
                28          28
                29          29
                30          30
                31          31
                32          32
                33          33
                34          34
                35          35

 KPOINTS: Fully automatic kpoint scheme

Automatic generation of k-mesh.
 generate k-points for:    5    5    5
Space group operators:
 irot       det(A)        alpha          n_x          n_y          n_z        tau_x        tau_y        tau_z
    1     1.000000     0.000000     1.000000     0.000000     0.000000     0.000000     0.000000     0.000000

 Subroutine IBZKPT returns following result:

 Found     63 irreducible k-points:

 Following reciprocal coordinates:
            Coordinates               Weight
  0.000000  0.000000  0.000000      1.000000
  0.200000  0.000000 -0.000000      2.000000
  0.400000 -0.000000 -0.000000      2.000000
  0.000000  0.200000  0.000000      2.000000
  0.200000  0.200000 -0.000000      2.000000
  0.400000  0.200000 -0.000000      2.000000
 -0.400000  0.200000  0.000000      2.000000
 -0.200000  0.200000  0.000000      2.000000
  0.000000  0.400000  0.000000      2.000000
  0.200000  0.400000  0.000000      2.000000
  0.400000  0.400000  0.000000      2.000000
 -0.400000  0.400000  0.000000      2.000000
 -0.200000  0.400000  0.000000      2.000000
  0.000000 -0.000000  0.200000      2.000000
  0.200000 -0.000000  0.200000      2.000000
  0.400000 -0.000000  0.200000      2.000000
 -0.400000  0.000000  0.200000      2.000000
 -0.200000  0.000000  0.200000      2.000000
  0.000000  0.200000  0.200000      2.000000
  0.200000  0.200000  0.200000      2.000000
  0.400000  0.200000  0.200000      2.000000
 -0.400000  0.200000  0.200000      2.000000
 -0.200000  0.200000  0.200000      2.000000
  0.000000  0.400000  0.200000      2.000000
  0.200000  0.400000  0.200000      2.000000
  0.400000  0.400000  0.200000      2.000000
 -0.400000  0.400000  0.200000      2.000000
 -0.200000  0.400000  0.200000      2.000000
 -0.000000 -0.400000  0.200000      2.000000
  0.200000 -0.400000  0.200000      2.000000
  0.400000 -0.400000  0.200000      2.000000
 -0.400000 -0.400000  0.200000      2.000000
 -0.200000 -0.400000  0.200000      2.000000
 -0.000000 -0.200000  0.200000      2.000000
  0.200000 -0.200000  0.200000      2.000000
  0.400000 -0.200000  0.200000      2.000000
 -0.400000 -0.200000  0.200000      2.000000
 -0.200000 -0.200000  0.200000      2.000000
  0.000000 -0.000000  0.400000      2.000000
  0.200000 -0.000000  0.400000      2.000000
  0.400000 -0.000000  0.400000      2.000000
 -0.400000 -0.000000  0.400000      2.000000
 -0.200000 -0.000000  0.400000      2.000000
  0.000000  0.200000  0.400000      2.000000
  0.200000  0.200000  0.400000      2.000000
  0.400000  0.200000  0.400000      2.000000
 -0.400000  0.200000  0.400000      2.000000
 -0.200000  0.200000  0.400000      2.000000
  0.000000  0.400000  0.400000      2.000000
  0.200000  0.400000  0.400000      2.000000
  0.400000  0.400000  0.400000      2.000000
 -0.400000  0.400000  0.400000      2.000000
 -0.200000  0.400000  0.400000      2.000000
 -0.000000 -0.400000  0.400000      2.000000
[...]
 number of electron     228.0000006 magnetization       4.0000002
 augmentation part       34.2587968 magnetization       2.4902246

[...]

 Broyden mixing:
  rms(total) = 0.77889E-03    rms(broyden)= 0.77765E-03
  rms(prec ) = 0.86205E-03
  weight for this iteration     100.00

 eigenvalues of (default mixing * dielectric matrix)
  average eigenvalue GAMMA=   1.0876
  2.1728  1.4323  0.7751  0.5289  0.5289

[...]

--------------------------------------- Iteration      4(   7)  ---------------------------------------

 eigenvalue-minimisations  : 22680
 total energy-change (2. order) :-0.9102339E-05  (-0.1572294E-06)
 number of electron     228.0000006 magnetization       4.0000002
 augmentation part       34.2603314 magnetization       2.4905828

 Free energy of the ion-electron system (eV)
  alpha Z        PSCENC =       688.98325680
  Ewald energy   TEWEN  =    -10803.30443522
  -Hartree energ DENC   =     -6596.98694582
  -exchange      EXHF   =         0.00000000
  -V(xc)+E(xc)   XCENC  =      1082.35215243
  PAW double counting   =     37282.50321678   -37323.20381777
  entropy T*S    EENTRO =        -0.00000000
  eigenvalues    EBANDS =     -2437.49760197
  atomic energy  EATOM  =     17725.39291388
  Solvation  Ediel_sol  =         0.00000000
  free energy    TOTEN  =      -381.76126089 eV

  energy without entropy =     -381.76126089  energy(sigma->0) =     -381.76126089

 average (electrostatic) potential at core
  the test charge radii are     1.1137  0.9339  0.9587  0.7215
  (the norm of the test charge is              1.0000)
       1 -50.3380       2 -57.5164       3 -57.4210       4 -57.3887       5 -57.5058
       6 -91.1115       7 -91.0245       8 -90.9778       9 -90.9480      10 -90.9203
      11 -91.0525      12 -77.1378      13 -76.6618      14 -76.9769      15 -76.7679
      16 -76.9615      17 -77.2860      18 -76.6609      19 -77.1015      20 -76.7378
      21 -76.9681      22 -77.1855      23 -76.9614      24 -77.0619      25 -77.0450
      26 -76.7757      27 -76.9993      28 -76.7254      29 -77.4455      30 -77.0573
      31 -76.7222      32 -77.4390      33 -77.0811      34 -77.0616      35 -76.8363

 E-fermi :   2.3669     XC(G=0): -10.2760     alpha+bet : -9.7795

[...]

 spin component 2

[...]

 k-point    63 :      -0.2000   -0.2000    0.4000
  band No.  band energies     occupation
      1     -39.2266      1.00000
      2     -38.8686      1.00000
      3     -38.8542      1.00000
      4     -38.8119      1.00000
      5     -38.7678      1.00000
      6     -37.9016      1.00000
      7     -37.9003      1.00000
      8     -37.5778      1.00000
      9     -37.5214      1.00000
     10     -37.5094      1.00000
     11     -37.5000      1.00000
     12     -37.4979      1.00000
     13     -37.4910      1.00000
     14     -21.1389      1.00000
     15     -21.0473      1.00000
     16     -20.9800      1.00000
     17     -20.9387      1.00000
     18     -20.8881      1.00000
     19     -20.8368      1.00000
     20     -19.6225      1.00000
     21     -19.4484      1.00000
     22     -19.4267      1.00000
     23     -18.8138      1.00000
     24     -18.7235      1.00000
     25     -18.6413      1.00000
     26     -18.5407      1.00000
     27     -18.4994      1.00000
     28     -18.4612      1.00000
     29     -18.3955      1.00000
     30     -18.3649      1.00000
     31     -18.3547      1.00000
     32     -18.3355      1.00000
     33     -18.2882      1.00000
     34     -18.2451      1.00000
     35     -18.2190      1.00000
     36     -18.2109      1.00000
     37     -18.1629      1.00000
     38     -18.1559      1.00000
     39     -18.1212      1.00000
     40     -18.0748      1.00000
     41      -7.9696      1.00000
     42      -7.7487      1.00000
     43      -7.6589      1.00000
     44      -7.6081      1.00000
     45      -7.4401      1.00000
     46      -7.2939      1.00000
     47      -5.9871      1.00000
     48      -5.8364      1.00000
     49      -5.7000      1.00000
     50      -5.6182      1.00000
     51      -5.4590      1.00000
     52      -5.4466      1.00000
     53      -5.3107      1.00000
     54      -5.2081      1.00000
     55      -5.0896      1.00000
     56      -5.0551      1.00000
     57      -4.9460      1.00000
     58      -4.8252      1.00000
     59      -4.7697      1.00000
     60      -4.6776      1.00000
[...]
    136       9.1190      0.00000
    137       9.3637      0.00000
    138       9.5361      0.00000
    139       9.6478      0.00000
    140      10.2426      0.00000
    141      10.5560      0.00000
    142      10.8963      0.00000
    143      11.1862      0.00000
    144      11.3247      0.00000
    145      11.3540      0.00000
    146      11.4819      0.00000
    147      11.5466      0.00000
    148      11.6186      0.00000
    149      11.7058      0.00000
    150      11.7686      0.00000

[...]

 soft charge-density along one line, spin component           2
         0         1         2         3         4         5         6         7         8         9
 total charge-density along one line

------------------------ aborting loop because EDIFF is reached ----------------------------------------

[...]

  FORCE on cell =-STRESS in cart. coord.  units (eV):
  Direction    XX          YY          ZZ          XY          YZ          ZX
  Alpha Z   688.98326   688.98326   688.98326
  Ewald   -3624.14287 -3691.89210 -3487.32009    73.20819   111.48320   143.82094
  Hartree  2186.17306  2149.35744  2261.44053    40.75911    40.89753    74.03966
  E(xc)   -1180.08593 -1180.09196 -1180.19514     0.02683    -0.03552    -0.09926
  Local   -2036.21842 -1929.67129 -2255.50862  -112.27197  -143.35314  -223.90108
  n-local  -592.73274  -591.39302  -598.11257    -1.92979    -0.44316    -3.43463
  augment   314.19812   312.43182   320.49834     0.45512    -1.81320     5.28946
  Kinetic  4243.36613  4241.78906  4249.77401    -0.27278    -6.77547     4.33037
  Fock        0.00000     0.00000     0.00000     0.00000     0.00000     0.00000
  Total      -0.45940    -0.48679    -0.44029    -0.02529    -0.03977     0.04546
  in kB      -1.70582    -1.80752    -1.63485    -0.09392    -0.14768     0.16880

 VOLUME and BASIS-vectors are now :
  energy-cutoff  :      520.00
  volume of cell :      431.48
      direct lattice vectors                 reciprocal lattice vectors
     2.619089462  6.938671205  4.523103888    -0.001644633  0.146747741 -0.003079055
     0.290747386  0.186156284  8.716908873    -0.071280651 -0.050123948  0.118167525
     7.415707686  0.178556738  4.549020027     0.138224448 -0.049863354 -0.003545525

  length of vectors
     8.686958990  8.723742804  8.701619746     0.146789253  0.146822700  0.146986132

 FORCES acting on ions
    electron-ion (+dipol)            ewald-force                    non-local-force                 convergence-correction
   -.190E+02 0.298E+01 0.902E+01   0.192E+02 -.332E+01 -.903E+01   -.103E+00 0.329E+00 0.368E-02   0.885E-04 -.152E-03 -.791E-04
   -.172E+02 -.269E+00 -.786E+01   0.172E+02 0.606E+00 0.875E+01   0.402E-01 -.279E+00 -.760E+00   0.558E-05 0.221E-04 0.958E-04
   0.767E+02 0.479E+02 0.116E+03   -.769E+02 -.475E+02 -.116E+03   0.222E+00 -.378E+00 -.318E+00   -.415E-04 -.214E-03 -.257E-03
   -.581E+02 -.515E+02 -.132E+03   0.578E+02 0.514E+02 0.132E+03   0.264E+00 0.108E+00 -.556E-01   -.720E-04 0.903E-04 0.290E-03
   0.445E-01 0.155E+02 0.724E+01   -.676E+00 -.154E+02 -.792E+01   0.574E+00 -.181E+00 0.524E+00   0.102E-03 -.856E-04 -.731E-04
   0.769E+01 0.147E+02 -.452E+02   -.726E+01 -.134E+02 0.452E+02   -.404E+00 -.126E+01 0.745E-01   -.214E-03 -.188E-03 -.260E-03
   0.538E+02 0.445E+01 0.526E+01   -.508E+02 -.467E+01 -.582E+01   -.286E+01 0.209E+00 0.563E+00   0.924E-04 0.863E-04 0.405E-03
   -.577E+02 -.711E+01 -.840E+01   0.575E+02 0.542E+01 0.559E+01   0.131E+00 0.165E+01 0.271E+01   -.995E-04 0.547E-05 -.325E-03
   -.277E+01 0.477E+02 0.150E+02   0.353E+01 -.492E+02 -.151E+02   -.722E+00 0.151E+01 0.142E+00   0.207E-03 0.171E-03 0.374E-03
   0.943E+01 -.500E+02 -.273E+02   -.112E+02 0.490E+02 0.268E+02   0.171E+01 0.905E+00 0.481E+00   -.286E-03 -.138E-03 -.223E-03
   0.644E+01 -.219E+02 0.552E+02   -.449E+01 0.234E+02 -.537E+02   -.190E+01 -.148E+01 -.146E+01   0.940E-04 0.107E-03 0.155E-03
   0.898E+02 -.640E+02 0.237E+02   -.724E+02 0.767E+02 -.416E+02   -.174E+02 -.127E+02 0.179E+02   0.791E-03 0.272E-03 -.762E-03
   0.205E+02 0.770E+02 0.176E+03   0.297E+01 -.991E+02 -.183E+03   -.235E+02 0.221E+02 0.731E+01   0.765E-03 -.918E-03 0.113E-02
   0.448E+02 0.890E+02 0.708E+01   -.716E+02 -.736E+02 -.251E+01   0.269E+02 -.155E+02 -.459E+01   -.118E-02 0.593E-03 -.227E-04
   0.131E+03 -.181E+02 0.161E+03   -.134E+03 0.485E+02 -.178E+03   0.349E+01 -.305E+02 0.164E+02   0.888E-03 0.144E-02 -.511E-03
   -.764E+02 0.978E+01 0.957E+02   0.802E+02 -.391E+02 -.884E+02   -.381E+01 0.294E+02 -.735E+01   -.102E-03 -.123E-02 0.301E-03
   0.941E+02 0.131E+03 0.117E+03   -.116E+03 -.142E+03 -.103E+03   0.220E+02 0.107E+02 -.139E+02   -.113E-02 -.665E-03 0.212E-02
   -.117E+03 -.118E+03 -.956E+02   0.143E+03 0.129E+03 0.777E+02   -.263E+02 -.114E+02 0.179E+02   0.111E-02 -.220E-03 -.168E-02
   -.386E+02 -.107E+03 0.278E+02   0.636E+02 0.934E+02 -.360E+02   -.250E+02 0.134E+02 0.823E+01   0.112E-02 -.655E-03 -.322E-03
   -.515E+01 -.761E+02 -.197E+03   -.187E+02 0.978E+02 0.208E+03   0.239E+02 -.217E+02 -.108E+02   -.149E-02 0.998E-03 -.764E-03
   0.617E+02 -.711E+01 -.826E+02   -.658E+02 0.365E+02 0.751E+02   0.413E+01 -.294E+02 0.745E+01   0.143E-03 0.121E-02 -.447E-03
   -.129E+03 -.141E+02 -.149E+03   0.131E+03 -.119E+02 0.162E+03   -.187E+01 0.261E+02 -.135E+02   -.965E-03 -.156E-02 0.109E-03
   -.895E+02 0.449E+02 -.507E+02   0.704E+02 -.545E+02 0.723E+02   0.191E+02 0.964E+01 -.217E+02   -.102E-02 -.184E-03 0.102E-02
   0.961E+02 -.103E+03 -.435E+01   -.987E+02 0.113E+03 -.246E+02   0.261E+01 -.921E+01 0.290E+02   0.450E-03 0.552E-03 -.223E-02
   0.150E+03 -.751E+02 -.246E+01   -.164E+03 0.594E+02 -.195E+02   0.140E+02 0.157E+02 0.220E+02   -.139E-03 -.666E-03 -.602E-03
   0.325E+02 0.112E+03 -.466E+02   -.639E+02 -.119E+03 0.396E+02   0.314E+02 0.705E+01 0.696E+01   -.843E-03 -.202E-03 -.147E-02
   0.144E+02 0.168E+03 -.206E+02   -.259E+02 -.176E+03 -.660E+01   0.115E+02 0.803E+01 0.272E+02   -.415E-03 0.181E-03 -.867E-03
   -.940E+02 -.239E+00 0.807E+02   0.952E+02 -.263E+02 -.100E+03   -.128E+01 0.266E+02 0.196E+02   -.638E-03 -.126E-02 -.290E-03
   -.105E+03 -.363E+02 0.111E+03   0.872E+02 0.293E+02 -.129E+03   0.174E+02 0.703E+01 0.174E+02   -.867E-03 -.304E-03 -.246E-03
   0.962E+02 0.407E+02 -.131E+03   -.770E+02 -.340E+02 0.155E+03   -.192E+02 -.668E+01 -.238E+02   0.105E-02 0.186E-03 0.365E-03
   -.381E+02 -.113E+03 0.500E+02   0.703E+02 0.119E+03 -.423E+02   -.323E+02 -.568E+01 -.763E+01   0.149E-02 -.228E-03 0.105E-02
   -.147E+03 0.945E+02 0.503E+01   0.159E+03 -.822E+02 0.149E+02   -.114E+02 -.123E+02 -.200E+02   -.796E-04 0.681E-03 0.766E-03
   0.112E+03 0.242E+02 -.761E+02   -.112E+03 -.110E+00 0.911E+02   0.789E+00 -.241E+02 -.149E+02   0.773E-03 0.137E-02 0.717E-03
   -.913E+01 -.154E+03 0.231E+02   0.196E+02 0.159E+03 0.298E+01   -.105E+02 -.503E+01 -.261E+02   0.286E-03 -.247E-03 0.114E-02
   -.882E+02 0.890E+02 -.149E+02   0.947E+02 -.994E+02 0.463E+02   -.644E+01 0.104E+02 -.314E+02   -.107E-03 0.892E-04 0.184E-02
   0.472E+01 -.317E+01 -.374E+01   -.568E-13 0.114E-12 -.426E-13   -.473E+01 0.317E+01 0.372E+01   -.226E-03 -.105E-02 0.452E-03

 POSITION                                       TOTAL-FORCE (eV/Angst)
      5.02002      3.69661      8.89060         0.011821     -0.003637     -0.007354
      6.63612      4.70194     11.46263         0.009551      0.004306      0.017522
      1.48431      1.01479      2.51185        -0.000088     -0.007516     -0.002461
      8.83935      6.22364     15.16650         0.001155     -0.002400     -0.002907
      3.63667      2.54732      6.23882        -0.004351      0.005280     -0.019595
      7.92649      2.00893     10.08204         0.001517     -0.007032     -0.002627
      3.78614      0.46806      8.78239        -0.002902      0.002748      0.002505
      6.51800      6.79856      8.91804        -0.005666      0.002871     -0.001169
      6.76958      3.35667      5.78034         0.006419      0.006961      0.001388
      3.49291      3.89999     11.90700        -0.000010     -0.006851      0.003879
      2.35671      5.27079      7.60540        -0.005102      0.002007     -0.001025
      4.74801      4.39626     11.15296         0.004647     -0.021151      0.003596
      7.85244      2.31469      5.89758        -0.014658      0.017162      0.002671
      6.81689      3.00984     10.39498         0.015526      0.001382     -0.008982
      2.69346      6.65098      7.08710        -0.004342     -0.022721      0.007774
      6.55491      5.43996      9.63066        -0.012932      0.005946     -0.001215
      2.66593      0.39857      9.84077        -0.000594      0.006977     -0.005782
      7.63027      6.91185      7.90847        -0.017337     -0.006136      0.015185
      3.41941      4.25056      7.17679        -0.010124     -0.007107      0.016279
      2.39962      4.94959     11.83904         0.015904     -0.012548     -0.009510
      3.72433      1.83863      8.10313         0.017674     -0.014694     -0.008594
      7.51149      0.61176     10.55778         0.001343      0.007220      0.002979
      5.54288      2.96570      6.61981         0.004486      0.009512     -0.008840
      8.11496      2.05017      8.56253        -0.012609     -0.013410      0.012300
      6.13232      6.30566     12.29575         0.007533     -0.001554      0.005707
      5.11898      6.86946      8.30742         0.020686     -0.012698     -0.008508
      6.65618      3.67818     13.03252         0.010338     -0.000868      0.002248
      3.15101      2.58823     11.21782         0.006000      0.014467      0.023256
      8.42562      5.04538     11.52732        -0.004488      0.000360     -0.009448
      1.78816      2.19484      6.27033        -0.006076      0.004734     -0.007775
      5.16718      0.35972      9.39365        -0.025571      0.011905      0.000768
      4.09997      0.97019      5.45561        -0.006433      0.014094     -0.002754
      7.50446      4.90647     15.06729        -0.004995     -0.005678      0.006631
      3.56410      3.51039      4.65395         0.003344      0.010450      0.006307
      2.33438      5.15121      9.12781         0.000335      0.017618     -0.022449
    total drift:                               -0.010162     -0.003041     -0.029361

  FREE ENERGIE OF THE ION-ELECTRON SYSTEM (eV)
  free  energy   TOTEN  =      -381.76126089 eV

  energy  without entropy=     -381.76126089  energy(sigma->0) =     -381.76126089

 d Force =-0.4360586E-04[-0.449E-04,-0.423E-04]  d Energy = 0.1551929E-03-0.199E-03
 d Force = 0.2516462E-01[ 0.251E-01, 0.252E-01]  d Ewald  = 0.1764148E+01-0.174E+01

 reached required accuracy - stopping structural energy minimisation

 total charge

[...]

 magnetization (x)

# of ion       s       p       d       tot
    1        0.001  -0.000   0.000   0.001
    2        0.003   0.008   0.992   1.003
    3        0.003   0.007   0.973   0.984
    4        0.004   0.007   0.984   0.995
    5        0.003   0.007   0.993   1.004
    6        0.002   0.004   0.000   0.006
    7        0.001   0.004   0.000   0.006
    8        0.003   0.005   0.000   0.008
    9        0.003   0.006   0.000   0.009
   10        0.002   0.005   0.000   0.008
   11        0.003   0.005   0.000   0.008
   12       -0.000  -0.017   0.000  -0.017
   13       -0.000  -0.001   0.000  -0.002
   14       -0.000  -0.005   0.000  -0.006
   15        0.000  -0.003   0.000  -0.003
   16        0.000  -0.009   0.000  -0.009
   17       -0.001  -0.037   0.000  -0.038
   18       -0.000   0.003   0.000   0.003
   19       -0.000  -0.015   0.000  -0.015
   20        0.000  -0.002   0.000  -0.002
   21       -0.000  -0.004   0.000  -0.004
   22       -0.001  -0.033   0.000  -0.035
   23        0.000  -0.010   0.000  -0.010
   24       -0.001  -0.025   0.000  -0.026
   25       -0.000  -0.003   0.000  -0.003
   26       -0.000  -0.005   0.000  -0.005
   27        0.001  -0.007   0.000  -0.006
   28       -0.000  -0.000   0.000  -0.000
   29       -0.001  -0.028   0.000  -0.029
   30        0.001  -0.008   0.000  -0.008
   31       -0.000  -0.002   0.000  -0.002
   32       -0.001  -0.030   0.000  -0.031
   33       -0.001  -0.030   0.000  -0.031
   34       -0.000  -0.003   0.000  -0.003
   35        0.000  -0.006   0.000  -0.006
tot          0.021  -0.220   3.943   3.744