 vasp.6.1.2 22Jul20 (build Mar 19 2021 09:51:12) complex

 executed on             LinuxIFC date 2021.07.24  21:49:17

 INCAR:
 POTCAR:    PAW_PBE Ca_sv 06Sep2000
 POTCAR:    PAW_PBE Fe_pv 02Aug2007
 POTCAR:    PAW_PBE O 08Apr2002
 POTCAR:    PAW_PBE Ca_sv 06Sep2000
   VRHFIN =Ca: 3s3p4s

   TITEL  = PAW_PBE Ca_sv 06Sep2000
   POMASS =   40.078; ZVAL   =   10.000    mass and valenz
   ENMAX  =  266.622; ENMIN  =  199.967 eV

 POTCAR:    PAW_PBE Fe_pv 02Aug2007
   VRHFIN =Fe:  3pd7s1

   TITEL  = PAW_PBE Fe_pv 02Aug2007
   POMASS =   55.847; ZVAL   =   14.000    mass and valenz
   ENMAX  =  293.238; ENMIN  =  219.928 eV

 POTCAR:    PAW_PBE O 08Apr2002
   VRHFIN =O: s2p4

   TITEL  = PAW_PBE O 08Apr2002
   POMASS =   16.000; ZVAL   =    6.000    mass and valenz
   ENMAX  =  400.000; ENMIN  =  300.000 eV

 Optimization of the real space projectors (new method)

 maximal supplied QI-value         = 16.25
 optimisation between [QCUT,QGAM] = [ 11.54, 23.24] = [ 37.28,151.24] Ry
 Optimized for a Real-space Cutoff    1.58 Angstroem

   l    n(q)    QCUT    max X(q) W(low)/X(q) W(high)/X(q)  e(spline)
   0     11    11.539    11.817    0.25E-04    0.22E-05    0.26E-07
   0     11    11.539     8.461    0.39E-04    0.49E-05    0.55E-07
   1     11    11.539     3.957    0.21E-05    0.44E-05    0.32E-07
   1     11    11.539     4.314    0.56E-04    0.44E-04    0.19E-06
   2     10    11.539    14.565    0.25E-03    0.21E-04    0.75E-06
   2     10    11.539    14.552    0.23E-03    0.22E-04    0.72E-06
 Optimization of the real space projectors (new method)

[...]

   l    n(q)    QCUT    max X(q) W(low)/X(q) W(high)/X(q)  e(spline)
   1     10    11.565     4.267    0.91E-04    0.15E-03    0.13E-06
   1     10    11.565     5.750    0.14E-03    0.22E-03    0.20E-06
   2      9    11.565    53.656    0.13E-03    0.57E-04    0.16E-06
   2      9    11.565    49.521    0.13E-03    0.59E-04    0.16E-06
   0     10    11.565    31.246    0.61E-04    0.74E-05    0.89E-07
   0     10    11.565    12.201    0.44E-04    0.68E-05    0.74E-07
 Optimization of the real space projectors (new method)

 maximal supplied QI-value         = 24.76
 optimisation between [QCUT,QGAM] = [ 11.64, 23.27] = [ 37.91,151.63] Ry
 Optimized for a Real-space Cutoff    1.14 Angstroem

   l    n(q)    QCUT    max X(q) W(low)/X(q) W(high)/X(q)  e(spline)
   0      8    11.635    20.381    0.10E-03    0.33E-03    0.24E-06
   0      8    11.635    15.268    0.11E-03    0.35E-03    0.26E-06
   1      7    11.635     5.964    0.24E-03    0.31E-03    0.30E-06
   1      7    11.635     5.382    0.22E-03    0.25E-03    0.26E-06
  PAW_PBE Ca_sv 06Sep2000               :
  PAW_PBE Fe_pv 02Aug2007               :
  PAW_PBE O 08Apr2002                   :

 POSCAR: Ca2 Fe7 O11
  positions in direct lattice
  velocities in cartesian coordinates

 METAGGA = SCAN     LMAXTAU =  6    LMIXTAU =  F

 ion  position               nearest neighbor table
   1  0.416  0.834  0.275-  15 2.29  15 2.29  13 2.40  13 2.41  17 2.42  17 2.42
   2  0.584  0.166  0.725-  16 2.29  16 2.29  14 2.40  14 2.41  18 2.42  18 2.42
   3  1.000  0.000  0.500-  18 1.98  17 1.98  20 2.25  19 2.25  20 2.25  19 2.25
   4  0.878  0.753  0.050-  13 1.99  12 2.10  10 2.16  10 2.17  11 2.20  11 2.21
   5  0.123  0.247  0.950-  14 1.99  11 2.10  10 2.16  10 2.17  12 2.20  12 2.20
   6  0.636  0.269  0.145-  15 1.94  13 2.05  13 2.05  11 2.08  11 2.08  10 2.23
   7  0.364  0.731  0.855-  16 1.94  14 2.05  14 2.05  12 2.08  12 2.08  10 2.23
   8  0.704  0.409  0.401-  15 1.94  17 2.05  17 2.05  19 2.06  19 2.06  20 2.18
   9  0.296  0.591  0.599-  16 1.94  18 2.05  18 2.05  20 2.06  20 2.06  19 2.18
  10  0.501  0.000  1.000-   5 2.16   4 2.16   5 2.17   4 2.17   7 2.23   6 2.23
  11  0.240  0.479  0.090-   6 2.08   6 2.08   5 2.10   4 2.20   4 2.21
  12  0.760  0.521  0.910-   7 2.08   7 2.08   4 2.10   5 2.20   5 2.20
  13  0.012  0.023  0.173-   4 1.99   6 2.05   6 2.05   1 2.40   1 2.41
  14  0.987  0.977  0.827-   5 1.99   7 2.05   7 2.05   2 2.40   2 2.41
  15  0.747  0.494  0.272-   8 1.94   6 1.94   1 2.29   1 2.29
  16  0.253  0.505  0.728-   9 1.94   7 1.94   2 2.29   2 2.29
  17  0.065  0.132  0.377-   3 1.98   8 2.05   8 2.05   1 2.42   1 2.42
  18  0.935  0.868  0.623-   3 1.98   9 2.05   9 2.05   2 2.42   2 2.42
  19  0.336  0.673  0.453-   8 2.06   8 2.06   9 2.18   3 2.25   3 2.25
  20  0.664  0.327  0.547-   9 2.06   9 2.06   8 2.18   3 2.25   3 2.25

IMPORTANT INFORMATION: All symmetrisations will be switched off!
NOSYMM: (Re-)initialisation of all symmetry stuff for point group C_1.

                                     Primitive cell

  volume of cell :     212.9234

  direct lattice vectors                    reciprocal lattice vectors
     0.001113302  3.030563758  0.001943674     0.078255397  0.329983255 -0.062981726
     4.481288375 -1.515862294 -2.374088221     0.156592395  0.000023060 -0.125647932
    -8.827860410 -0.006351653-11.001979395    -0.033776836  0.000053321 -0.063790625

  length of vectors
     3.030564586  5.293021715 14.105839584     0.344934129  0.200769972  0.072181170

  position of ions in fractional coordinates (direct lattice)
     0.415544993  0.833692342  0.274517211
     0.584300658  0.166200461  0.725456581
     0.999907096  0.000012144  0.500001330
     0.878394495  0.753229694  0.049913650
     0.123082932  0.246903297  0.950098807
     0.635658771  0.269267665  0.144778654
     0.364250321  0.730749074  0.855196826
     0.703575667  0.409421005  0.400891615
     0.296323179  0.590605054  0.599104867
     0.500787895  0.000130504  0.999943399
     0.239958197  0.478631534  0.090423185
     0.759547221  0.521341310  0.909706614
     0.011821685  0.022716757  0.172652210
     0.987375662  0.977318990  0.827352977
     0.746549126  0.494422761  0.272385846
     0.253216483  0.505423313  0.727599598
     0.064860362  0.131888059  0.376641702
     0.934992559  0.868088979  0.623345569
     0.335939314  0.673060371  0.452962990
     0.663913384  0.326896683  0.547026369

  ion indices of the primitive-cell ions
   primitive index   ion index
                 1           1
                 2           2
                 3           3
                 4           4
                 5           5
                 6           6
                 7           7
                 8           8
                 9           9
                10          10
                11          11
                12          12
                13          13
                14          14
                15          15
                16          16
                17          17
                18          18
                19          19
                20          20

 KPOINTS: K-points file

Automatic generation of k-mesh.
Space group operators:
 irot       det(A)        alpha          n_x          n_y          n_z        tau_x        tau_y        tau_z
    1     1.000000     0.000000     1.000000     0.000000     0.000000     0.000000     0.000000     0.000000

 Subroutine IBZKPT returns following result:

 Found    116 irreducible k-points:

 Following reciprocal coordinates:
            Coordinates               Weight
  0.000000  0.000000  0.000000      1.000000
  0.090909 -0.000000 -0.000000      2.000000
  0.181818 -0.000000  0.000000      2.000000
  0.272727  0.000000  0.000000      2.000000
  0.363636 -0.000000  0.000000      2.000000
  0.454545 -0.000000 -0.000000      2.000000
  0.000000  0.142857  0.000000      2.000000
  0.090909  0.142857 -0.000000      2.000000
  0.181818  0.142857 -0.000000      2.000000
  0.272727  0.142857  0.000000      2.000000
  0.363636  0.142857  0.000000      2.000000
  0.454545  0.142857  0.000000      2.000000
 -0.454545  0.142857 -0.000000      2.000000
 -0.363636  0.142857 -0.000000      2.000000
 -0.272727  0.142857 -0.000000      2.000000
 -0.181818  0.142857 -0.000000      2.000000
 -0.090909  0.142857  0.000000      2.000000
 -0.000000  0.285714 -0.000000      2.000000
  0.090909  0.285714  0.000000      2.000000
  0.181818  0.285714 -0.000000      2.000000
  0.272727  0.285714 -0.000000      2.000000
  0.363636  0.285714  0.000000      2.000000
  0.454545  0.285714 -0.000000      2.000000
 -0.454545  0.285714 -0.000000      2.000000
 -0.363636  0.285714 -0.000000      2.000000
 -0.272727  0.285714  0.000000      2.000000
 -0.181818  0.285714  0.000000      2.000000
 -0.090909  0.285714  0.000000      2.000000
 -0.000000  0.428571  0.000000      2.000000
  0.090909  0.428571 -0.000000      2.000000
  0.181818  0.428571  0.000000      2.000000
  0.272727  0.428571  0.000000      2.000000
  0.363636  0.428571 -0.000000      2.000000
  0.454545  0.428571  0.000000      2.000000
 -0.454545  0.428571 -0.000000      2.000000
 -0.363636  0.428571 -0.000000      2.000000
 -0.272727  0.428571 -0.000000      2.000000
 -0.181818  0.428571  0.000000      2.000000
 -0.090909  0.428571  0.000000      2.000000
 -0.000000 -0.000000  0.333333      2.000000
  0.090909 -0.000000  0.333333      2.000000
  0.181818 -0.000000  0.333333      2.000000
  0.272727 -0.000000  0.333333      2.000000
  0.363636 -0.000000  0.333333      2.000000
  0.454545 -0.000000  0.333333      2.000000
 -0.454545 -0.000000  0.333333      2.000000
 -0.363636  0.000000  0.333333      2.000000
 -0.272727  0.000000  0.333333      2.000000
 -0.181818  0.000000  0.333333      2.000000
 -0.090909  0.000000  0.333333      2.000000
  0.000000  0.142857  0.333333      2.000000
  0.090909  0.142857  0.333333      2.000000
  0.181818  0.142857  0.333333      2.000000
  0.272727  0.142857  0.333333      2.000000
  0.363636  0.142857  0.333333      2.000000
  0.454545  0.142857  0.333333      2.000000
 -0.454545  0.142857  0.333333      2.000000
 -0.363636  0.142857  0.333333      2.000000
 -0.272727  0.142857  0.333333      2.000000
 -0.181818  0.142857  0.333333      2.000000
[...]
 -0.363636 -0.285714  0.333333      2.000000
 -0.272727 -0.285714  0.333333      2.000000
 -0.181818 -0.285714  0.333333      2.000000
 -0.090909 -0.285714  0.333333      2.000000
  0.000000 -0.142857  0.333333      2.000000
  0.090909 -0.142857  0.333333      2.000000
  0.181818 -0.142857  0.333333      2.000000
  0.272727 -0.142857  0.333333      2.000000
  0.363636 -0.142857  0.333333      2.000000
  0.454545 -0.142857  0.333333      2.000000
 -0.454545 -0.142857  0.333333      2.000000
 -0.363636 -0.142857  0.333333      2.000000
 -0.272727 -0.142857  0.333333      2.000000
 -0.181818 -0.142857  0.333333      2.000000
 -0.090909 -0.142857  0.333333      2.000000

 Following cartesian coordinates:
            Coordinates               Weight
  0.000000  0.000000  0.000000      1.000000
  0.007114  0.029998 -0.005726      2.000000
  0.014228  0.059997 -0.011451      2.000000
  0.021342  0.089995 -0.017177      2.000000
  0.028457  0.119994 -0.022902      2.000000
  0.035571  0.149992 -0.028628      2.000000
  0.022370  0.000003 -0.017950      2.000000
  0.029484  0.030002 -0.023675      2.000000
  0.036599  0.060000 -0.029401      2.000000
  0.043713  0.089999 -0.035127      2.000000
  0.050827  0.119997 -0.040852      2.000000
  0.057941  0.149996 -0.046578      2.000000
[...]
  o =  0.9668  v =  0.0027  0.0013  0.6626 -0.4923  0.5644  0.0000  0.0000  0.0000  0.0000  0.0000      0.0000  0.0000  0.0000  0.0000  0.0000  0.0000  0.0000  0.0000  0.0000  0.0000
  o =  0.9690  v =  0.0005  0.0015 -0.7378 -0.2993  0.6051  0.0000  0.0000  0.0000  0.0000  0.0000      0.0000  0.0000  0.0000  0.0000  0.0000  0.0000  0.0000  0.0000  0.0000  0.0000
  o =  0.9704  v =  0.7675  0.6411 -0.0009  0.0023 -0.0022  0.0000  0.0000  0.0000  0.0000  0.0000      0.0000  0.0000  0.0000  0.0000  0.0000  0.0000  0.0000  0.0000  0.0000  0.0000
  o =  1.0100  v = -0.6411  0.7675  0.0006 -0.0033 -0.0023  0.0000  0.0000  0.0000  0.0000  0.0000      0.0000  0.0000  0.0000  0.0000  0.0000  0.0000  0.0000  0.0000  0.0000  0.0000
  o =  1.0106  v =  0.0029 -0.0027 -0.1290 -0.8173 -0.5615  0.0000  0.0000  0.0000  0.0000  0.0000      0.0000  0.0000  0.0000  0.0000  0.0000  0.0000  0.0000  0.0000  0.0000  0.0000

 eigenvalue-minimisations  : 62016
 total energy-change (2. order) :-0.4271613E-05  (-0.7787708E-05)
 number of electron     184.0000000 magnetization      32.0000006
 augmentation part       71.4812343 magnetization      22.1295999

 Free energy of the ion-electron system (eV)
  alpha Z        PSCENC =       981.14362439
  Ewald energy   TEWEN  =    -16496.33892654
  -Hartree energ DENC   =     -6499.86951275
  -exchange      EXHF   =         0.00000000
  -V(xc)+E(xc)   XCENC  =      1073.80485559
  PAW double counting   =     23266.94337075   -23979.27124822
  entropy T*S    EENTRO =        -0.00000020
  eigenvalues    EBANDS =     -2561.56052896
  atomic energy  EATOM  =     23970.03941116
  Solvation  Ediel_sol  =         0.00000000
  free energy    TOTEN  =      -245.10895479 eV

  energy without entropy =     -245.10895459  energy(sigma->0) =     -245.10895469

 average (electrostatic) potential at core
  the test charge radii are     1.1137  0.9500  0.7215
  (the norm of the test charge is              1.0000)
       1 -45.7262       2 -45.7270       3 -82.4107       4 -82.3654       5 -82.3751
       6 -85.7085       7 -85.7105       8 -85.7409       9 -85.7430      10 -72.4344
      11 -72.8760      12 -72.8818      13 -72.4805      14 -72.4811      15 -72.2153
      16 -72.2176      17 -72.5411      18 -72.5447      19 -72.7814      20 -72.7817

 E-fermi :   6.8051     XC(G=0): -12.5869     alpha+bet :-13.2369

[...]

 k-point     1 :       0.0000    0.0000    0.0000
  band No.  band energies     occupation
      1     -55.0144      1.00000
      2     -55.0113      1.00000
      3     -54.9354      1.00000
      4     -54.9345      1.00000
      5     -54.9304      1.00000
      6     -54.9233      1.00000
      7     -54.9085      1.00000
      8     -54.9068      1.00000
      9     -54.9042      1.00000
     10     -54.9011      1.00000
     11     -54.8351      1.00000
     12     -54.8333      1.00000
     13     -52.2581      1.00000
     14     -52.2427      1.00000
     15     -52.2398      1.00000
     16     -50.9377      1.00000
     17     -50.9164      1.00000
     18     -50.9022      1.00000
     19     -50.7964      1.00000
     20     -50.7099      1.00000
     21     -50.6993      1.00000
     22     -34.8153      1.00000
     23     -34.8143      1.00000
     24     -15.5044      1.00000
     25     -15.4960      1.00000
     26     -15.4924      1.00000
     27     -15.4154      1.00000
     28     -14.6175      1.00000
     29     -14.5888      1.00000
     30     -14.5880      1.00000
     31     -14.2571      1.00000
     32     -14.0503      1.00000
     33     -13.6306      1.00000
     34     -13.4634      1.00000
     35     -13.4386      1.00000
     36     -13.3153      1.00000
     37     -13.1097      1.00000
     38     -13.0258      1.00000
     39     -12.5635      1.00000
     40     -12.5534      1.00000
     41      -2.7295      1.00000
     42      -2.6063      1.00000
     43      -2.4981      1.00000
     44      -2.4386      1.00000
     45      -2.3697      1.00000
     46      -2.3638      1.00000
     47      -2.3201      1.00000
     48      -2.2820      1.00000
     49      -2.2714      1.00000
     50      -2.2604      1.00000
     51      -1.9889      1.00000
     52      -1.8951      1.00000
     53      -1.7636      1.00000
     54      -1.7623      1.00000
     55      -1.4795      1.00000
     56      -1.4625      1.00000
     57      -1.3824      1.00000
     58      -1.3169      1.00000
     59      -1.2670      1.00000
     60      -1.1645      1.00000
[...]
    114      12.0759      0.00000
    115      12.1532      0.00000
    116      12.5545      0.00000
    117      12.5763      0.00000
    118      13.1552      0.00000
    119      13.7886      0.00000
    120      13.8773      0.00000
    121      13.9004      0.00000
    122      14.0895      0.00000
    123      14.1404      0.00000
    124      14.5950      0.00000
    125      14.5973      0.00000
    126      15.9266      0.00000
    127      15.9313      0.00000
    128      16.0042      0.00000

[...]

 spin component 2

[...]

 k-point   116 :      -0.0909   -0.1429    0.3333
  band No.  band energies     occupation
      1     -48.4778      1.00000
      2     -48.4746      1.00000
      3     -48.4548      1.00000
      4     -48.4524      1.00000
      5     -48.4149      1.00000
      6     -48.4045      1.00000
      7     -48.4002      1.00000
      8     -48.3982      1.00000
      9     -48.3963      1.00000
     10     -48.3925      1.00000
     11     -48.3737      1.00000
     12     -48.3707      1.00000
     13     -45.9062      1.00000
     14     -45.8875      1.00000
     15     -45.8829      1.00000
     16     -45.5338      1.00000
     17     -45.4884      1.00000
     18     -45.4610      1.00000
     19     -45.4512      1.00000
     20     -45.3966      1.00000
     21     -45.3831      1.00000
     22     -34.7941      1.00000
     23     -34.7931      1.00000
     24     -15.3829      1.00000
     25     -15.3777      1.00000
     26     -15.3132      1.00000
     27     -15.2830      1.00000
     28     -14.7193      1.00000
     29     -14.7134      1.00000
     30     -13.8558      1.00000
     31     -13.7106      1.00000
     32     -13.3286      1.00000
     33     -13.0002      1.00000
     34     -12.8384      1.00000
     35     -12.7911      1.00000
     36     -12.6739      1.00000
     37     -12.6083      1.00000
     38     -12.4099      1.00000
     39     -12.0439      1.00000
     40     -12.0170      1.00000
     41      -0.1332      1.00000
     42      -0.1042      1.00000
     43      -0.0443      1.00000
     44       0.1992      1.00000
     45       0.5787      1.00000
     46       0.8021      1.00000
     47       0.9020      1.00000
     48       1.0818      1.00000
     49       1.2940      1.00000
     50       1.5758      1.00000
     51       1.6291      1.00000
     52       1.7767      1.00000
     53       1.8714      1.00000
     54       1.9222      1.00000
     55       1.9806      1.00000
     56       2.0905      1.00000
     57       2.2887      1.00000
     58       2.3807      1.00000
     59       2.4985      1.00000
     60       2.5525      1.00000
[...]
    114      12.7390      0.00000
    115      12.8770      0.00000
    116      12.9308      0.00000
    117      13.3615      0.00000
    118      13.7686      0.00000
    119      13.9036      0.00000
    120      14.3261      0.00000
    121      14.4120      0.00000
    122      14.6047      0.00000
    123      14.9414      0.00000
    124      15.3809      0.00000
    125      15.5148      0.00000
    126      16.3655      0.00000
    127      16.6817      0.00000
    128      17.0715      0.00000

 soft charge-density along one line, spin component           1
         0         1         2         3         4         5         6         7         8         9
 total charge-density along one line

 soft charge-density along one line, spin component           2
         0         1         2         3         4         5         6         7         8         9
 total charge-density along one line

------------------------ aborting loop because EDIFF is reached ----------------------------------------

 total charge

# of ion       s       p       d       tot
    1        2.032   5.881   0.281   8.194
    2        2.032   5.881   0.282   8.194
    3        0.252   6.250   5.942  12.444
    4        0.243   6.249   5.941  12.433
    5        0.244   6.249   5.941  12.433
    6        0.304   6.338   5.600  12.242
    7        0.304   6.338   5.600  12.241
    8        0.310   6.350   5.595  12.256
    9        0.310   6.350   5.595  12.255
   10        1.563   3.495   0.000   5.058
   11        1.562   3.501   0.000   5.064
   12        1.562   3.501   0.000   5.064
   13        1.565   3.524   0.000   5.088
   14        1.565   3.523   0.000   5.088
   15        1.566   3.529   0.000   5.095
   16        1.566   3.529   0.000   5.095
   17        1.565   3.526   0.000   5.090
   18        1.565   3.526   0.000   5.090
   19        1.564   3.493   0.000   5.057
   20        1.564   3.493   0.000   5.057
tot         23.237  94.523  40.778 158.538

 magnetization (x)

[...]

  FORCE on cell =-STRESS in cart. coord.  units (eV):
  Direction    XX          YY          ZZ          XY          YZ          ZX
  Alpha Z   981.14362   981.14362   981.14362
  Ewald   -5460.47949 -4934.65553 -6101.23933     0.67857     2.42743  -457.02560
  Hartree  2194.54989  2677.29200  1627.60939     0.23397     2.36788  -402.44978
  E(xc)   -1149.00341 -1149.11022 -1149.11187    -0.01203    -0.00136     0.01963
  Local      75.34973  -949.37497  1301.30281    -0.42771    -5.82878   850.70119
  n-local  -500.07667  -504.99271  -494.10996     0.07546    -0.13097     1.03105
  augment  1196.95070  1209.46874  1183.76635    -0.27387     0.78557     5.10473
  Kinetic  2661.43906  2669.93177  2650.35660    -0.32411     0.31466     2.57997
  Fock        0.00000     0.00000     0.00000     0.00000     0.00000     0.00000
  Total      -0.12656    -0.29730    -0.28238    -0.04972    -0.06557    -0.03881
  in kB      -0.95232    -2.23708    -2.12483    -0.37413    -0.49343    -0.29206

 VOLUME and BASIS-vectors are now :
  energy-cutoff  :      520.00
  volume of cell :      212.92
      direct lattice vectors                 reciprocal lattice vectors
     0.001113302  3.030563758  0.001943674     0.078255397  0.329983255 -0.062981726
     4.481288375 -1.515862294 -2.374088221     0.156592395  0.000023060 -0.125647932
    -8.827860410 -0.006351653-11.001979395    -0.033776836  0.000053321 -0.063790625

  length of vectors
     3.030564586  5.293021715 14.105839584     0.344934129  0.200769972  0.072181170

 FORCES acting on ions
    electron-ion (+dipol)            ewald-force                    non-local-force                 convergence-correction
   0.430E+02 -.647E+00 0.641E+02   -.439E+02 0.634E+00 -.635E+02   0.975E+00 0.182E-01 -.569E+00   0.551E-03 -.468E-04 0.200E-02
   -.430E+02 0.763E+00 -.637E+02   0.440E+02 -.739E+00 0.632E+02   -.977E+00 -.272E-01 0.568E+00   -.513E-03 0.114E-04 -.204E-02
   0.317E-02 -.199E-01 -.897E-02   -.662E-03 0.211E-01 0.319E-01   -.102E-02 0.163E-03 -.231E-01   0.712E-05 0.872E-05 -.176E-04
   0.188E+03 0.432E+00 0.207E+03   -.185E+03 -.426E+00 -.210E+03   -.291E+01 0.121E-01 0.297E+01   0.773E-02 -.106E-03 0.215E-02
   -.188E+03 -.170E+00 -.207E+03   0.185E+03 0.152E+00 0.210E+03   0.298E+01 0.116E-01 -.297E+01   -.653E-02 0.199E-03 -.177E-02
   0.183E+03 -.334E+00 0.401E+03   -.185E+03 0.333E+00 -.406E+03   0.216E+01 0.102E-02 0.451E+01   0.122E-02 0.503E-03 0.524E-02
   -.182E+03 0.113E+01 -.402E+03   0.185E+03 -.107E+01 0.406E+03   -.220E+01 -.548E-01 -.448E+01   -.193E-02 0.423E-03 -.526E-02
   -.126E+03 0.179E+00 -.213E+03   0.128E+03 -.178E+00 0.216E+03   -.246E+01 0.277E-02 -.291E+01   -.692E-03 0.380E-04 0.824E-03
   0.126E+03 -.158E+00 0.213E+03   -.129E+03 0.157E+00 -.216E+03   0.245E+01 0.105E-02 0.289E+01   0.530E-03 -.921E-05 -.102E-02
   0.188E+00 -.780E-01 -.178E+00   -.215E+00 0.569E-01 0.176E+00   0.275E-01 0.416E-01 0.158E-02   -.110E-03 0.250E-02 0.124E-03
   0.155E+02 -.794E+00 0.218E+03   -.130E+02 0.843E+00 -.223E+03   -.252E+01 -.498E-01 0.446E+01   0.131E-02 -.543E-03 0.274E-02
   -.162E+02 0.137E-01 -.218E+03   0.137E+02 -.148E-01 0.223E+03   0.249E+01 -.132E-02 -.447E+01   -.101E-02 0.470E-03 -.282E-02
   0.232E+03 0.848E-01 0.227E+03   -.238E+03 -.880E-01 -.233E+03   0.617E+01 -.339E-02 0.665E+01   0.382E-02 -.170E-02 0.342E-02
   -.232E+03 -.299E+00 -.227E+03   0.238E+03 0.339E+00 0.233E+03   -.619E+01 -.460E-01 -.661E+01   -.391E-02 -.127E-02 -.316E-02
   -.628E+02 0.353E+00 0.838E+02   0.651E+02 -.403E+00 -.848E+02   -.231E+01 0.485E-01 0.917E+00   -.166E-02 0.327E-04 0.252E-02
   0.629E+02 -.316E+00 -.837E+02   -.652E+02 0.368E+00 0.846E+02   0.232E+01 -.517E-01 -.934E+00   0.159E-02 0.354E-04 -.267E-02
   -.516E+01 0.283E+00 -.236E+03   0.721E+01 -.306E+00 0.245E+03   -.207E+01 0.262E-01 -.902E+01   -.438E-03 -.972E-06 -.280E-02
   0.525E+01 -.325E+00 0.236E+03   -.729E+01 0.349E+00 -.245E+03   0.206E+01 -.274E-01 0.901E+01   0.404E-03 -.156E-04 0.274E-02
   -.153E+03 0.197E+00 -.464E+02   0.158E+03 -.223E+00 0.451E+02   -.516E+01 0.331E-01 0.132E+01   -.570E-03 0.635E-05 -.126E-02
   0.153E+03 -.176E+00 0.466E+02   -.158E+03 0.200E+00 -.452E+02   0.515E+01 -.307E-01 -.132E+01   0.549E-03 0.114E-06 0.124E-02
   0.336E-01 0.113E+00 -.181E-01   0.114E-12 0.712E-13 -.952E-12   -.368E-02 -.961E-01 0.423E-02   0.348E-03 0.539E-03 0.182E-03

 POSITION                                       TOTAL-FORCE (eV/Angst)
      1.31308     -0.00617     -4.99868        -0.000530      0.003914      0.001157
     -5.65879      1.51422     -8.37490        -0.002200     -0.004613     -0.001944
     -4.41277      3.02709     -5.49909         0.000051      0.000221      0.000663
      2.93579      1.51992     -2.33568         0.020282      0.015330     -0.001353
     -7.28076     -0.00730    -11.03890         0.004429     -0.005414     -0.008859
     -0.07071      1.51731     -2.23088        -0.011744     -0.001527     -0.008858
     -4.27446     -0.00926    -11.14301         0.009732     -0.004279      0.009606
     -1.70350      1.50906     -5.38124         0.014557      0.004238      0.013815
     -2.64181     -0.00105     -7.99291        -0.021204     -0.002531     -0.006974
     -8.82622      1.51112    -11.00069        -0.001638      0.022114      0.000359
      1.34691      0.00109     -2.13068         0.007528     -0.002448      0.003258
     -5.69364      1.50580    -11.24481        -0.003067     -0.002817     -0.003488
     -1.42234      0.00029     -1.95342        -0.005749     -0.009084      0.023298
     -2.92301      1.50557    -11.42084        -0.001571     -0.007841     -0.011817
     -0.18810      1.51126     -4.16914        -0.006248     -0.001859     -0.016032
     -4.15792     -0.00338     -9.20446         0.005716     -0.000694      0.009340
     -2.73384     -0.00575     -4.45679        -0.020281      0.002056      0.009220
     -1.61161      1.51369     -8.91714         0.015343     -0.003616     -0.009553
     -0.98214     -0.00506     -6.58074        -0.001080      0.005940     -0.013125
     -3.36341      1.51303     -6.79316        -0.002327     -0.007090      0.011286
    total drift:                                0.030270      0.017291     -0.013645

  FREE ENERGIE OF THE ION-ELECTRON SYSTEM (eV)
  free  energy   TOTEN  =      -245.10895479 eV

  energy  without entropy=     -245.10895459  energy(sigma->0) =     -245.10895469

 reached required accuracy - stopping structural energy minimisation

 total charge

[...]

 magnetization (x)

# of ion       s       p       d       tot
    1        0.002   0.003   0.009   0.014
    2        0.002   0.003   0.009   0.014
    3        0.033   0.022   3.705   3.760
    4        0.022   0.021   3.724   3.767
    5        0.022   0.021   3.725   3.769
    6        0.020   0.032   4.220   4.272
    7        0.020   0.032   4.220   4.272
    8        0.020   0.030   4.236   4.286
    9        0.020   0.030   4.236   4.286
   10        0.026   0.224   0.000   0.250
   11        0.024   0.229   0.000   0.253
   12        0.024   0.229   0.000   0.253
   13        0.016   0.217   0.000   0.233
   14        0.016   0.218   0.000   0.233
   15        0.015   0.242   0.000   0.257
   16        0.014   0.242   0.000   0.257
   17        0.015   0.210   0.000   0.225
   18        0.015   0.210   0.000   0.225
   19        0.025   0.269   0.000   0.295
   20        0.025   0.269   0.000   0.295
tot          0.376   2.756  28.085  31.217