 vasp.6.1.2 22Jul20 (build Mar 19 2021 09:51:12) complex

 executed on             LinuxIFC date 2021.07.23  10:32:00

 INCAR:
 POTCAR:    PAW_PBE Ca_sv 06Sep2000
 POTCAR:    PAW_PBE Si 05Jan2001
 POTCAR:    PAW_PBE O 08Apr2002
 POTCAR:    PAW_PBE Ca_sv 06Sep2000
   VRHFIN =Ca: 3s3p4s

   TITEL  = PAW_PBE Ca_sv 06Sep2000
   POMASS =   40.078; ZVAL   =   10.000    mass and valenz
   ENMAX  =  266.622; ENMIN  =  199.967 eV

 POTCAR:    PAW_PBE Si 05Jan2001
   VRHFIN =Si: s2p2

   TITEL  = PAW_PBE Si 05Jan2001
   POMASS =   28.085; ZVAL   =    4.000    mass and valenz
   ENMAX  =  245.345; ENMIN  =  184.009 eV

 POTCAR:    PAW_PBE O 08Apr2002
   VRHFIN =O: s2p4

   TITEL  = PAW_PBE O 08Apr2002
   POMASS =   16.000; ZVAL   =    6.000    mass and valenz
   ENMAX  =  400.000; ENMIN  =  300.000 eV

 Optimization of the real space projectors (new method)

 maximal supplied QI-value         = 16.25
 optimisation between [QCUT,QGAM] = [ 11.54, 23.24] = [ 37.28,151.24] Ry
 Optimized for a Real-space Cutoff    1.58 Angstroem

   l    n(q)    QCUT    max X(q) W(low)/X(q) W(high)/X(q)  e(spline)
   0     11    11.539    11.817    0.25E-04    0.22E-05    0.26E-07
   0     11    11.539     8.461    0.39E-04    0.49E-05    0.55E-07
   1     11    11.539     3.957    0.21E-05    0.44E-05    0.32E-07
   1     11    11.539     4.314    0.56E-04    0.44E-04    0.19E-06
   2     10    11.539    14.565    0.25E-03    0.21E-04    0.75E-06
   2     10    11.539    14.552    0.23E-03    0.22E-04    0.72E-06
 Optimization of the real space projectors (new method)

[...]

   l    n(q)    QCUT    max X(q) W(low)/X(q) W(high)/X(q)  e(spline)
   0      8    11.508   159.560    0.71E-04    0.15E-03    0.51E-07
   0      8    11.508   115.863    0.70E-04    0.15E-03    0.51E-07
   1      8    11.508    88.339    0.16E-03    0.38E-04    0.82E-07
   1      8    11.508    48.592    0.15E-03    0.36E-04    0.79E-07
 Optimization of the real space projectors (new method)

 maximal supplied QI-value         = 24.76
 optimisation between [QCUT,QGAM] = [ 11.64, 23.27] = [ 37.91,151.63] Ry
 Optimized for a Real-space Cutoff    1.14 Angstroem

   l    n(q)    QCUT    max X(q) W(low)/X(q) W(high)/X(q)  e(spline)
   0      8    11.635    20.381    0.10E-03    0.33E-03    0.24E-06
   0      8    11.635    15.268    0.11E-03    0.35E-03    0.26E-06
   1      7    11.635     5.964    0.24E-03    0.31E-03    0.30E-06
   1      7    11.635     5.382    0.22E-03    0.25E-03    0.26E-06
  PAW_PBE Ca_sv 06Sep2000               :
  PAW_PBE Si 05Jan2001                  :
  PAW_PBE O 08Apr2002                   :

 POSCAR: Ca6 Si2 O2
  positions in direct lattice
  velocities in cartesian coordinates

 METAGGA = SCAN     LMAXTAU =  6    LMIXTAU =  F

 ion  position               nearest neighbor table
   1  0.250  0.282  0.218-  10 2.36   9 2.36   8 3.12
   2  0.750  0.718  0.782-  10 2.36   9 2.36   7 3.12
   3  0.267  0.233  0.733-   9 2.35  10 2.35
   4  0.233  0.767  0.267-  10 2.35   9 2.35
   5  0.733  0.767  0.267-   9 2.35  10 2.35
   6  0.767  0.233  0.733-  10 2.35   9 2.35
   7  0.750  0.249  0.251-   2 3.12
   8  0.250  0.751  0.749-   1 3.12
   9  0.500  1.000  0.000-   5 2.35   3 2.35   4 2.35   6 2.35   2 2.36   1 2.36
  10  1.000  0.500  0.500-   6 2.35   4 2.35   3 2.35   5 2.35   2 2.36   1 2.36

IMPORTANT INFORMATION: All symmetrisations will be switched off!
NOSYMM: (Re-)initialisation of all symmetry stuff for point group C_1.

                                     Primitive cell

  volume of cell :     207.2195

  direct lattice vectors                    reciprocal lattice vectors
     0.000000061 -6.641166025 -0.000053658    -0.000000001 -0.150576828  0.106541801
    -3.324309215 -3.320620885 -4.693074050    -0.150407186  0.000000859 -0.106540586
     3.324309333 -3.320620945 -4.693074092     0.150407184  0.000000862 -0.106540584

  length of vectors
     6.641166025  6.640971229  6.640971347     0.184457412  0.184318252  0.184318250

  position of ions in fractional coordinates (direct lattice)
     0.250000005  0.281765684  0.218234336
     0.750000042  0.718234638  0.781765329
     0.266999290  0.232990496  0.733004824
     0.233000726  0.766995166  0.267009460
     0.733000448  0.767009418  0.266995249
     0.766999552  0.233004727  0.732990526
     0.750000000  0.248539602  0.251460430
     0.249999940  0.751460311  0.748539767
     0.500000011  0.999999947  0.000000050
     0.999999985  0.500000011  0.500000030

  ion indices of the primitive-cell ions
   primitive index   ion index
                 1           1
                 2           2
                 3           3
                 4           4
                 5           5
                 6           6
                 7           7
                 8           8
                 9           9
                10          10

 KPOINTS: K-points file

Automatic generation of k-mesh.
Space group operators:
 irot       det(A)        alpha          n_x          n_y          n_z        tau_x        tau_y        tau_z
    1     1.000000     0.000001     1.000000     0.000000     0.000000     0.000000     0.000000     0.000000

 Subroutine IBZKPT returns following result:

 Found     63 irreducible k-points:

 Following reciprocal coordinates:
            Coordinates               Weight
  0.000000  0.000000  0.000000      1.000000
  0.200000 -0.000000  0.000000      2.000000
  0.400000  0.000000 -0.000000      2.000000
  0.000000  0.200000  0.000000      2.000000
 -0.000000  0.000000 -0.200000      2.000000
  0.200000  0.200000  0.000000      2.000000
 -0.200000 -0.000000 -0.200000      2.000000
  0.400000  0.200000  0.000000      2.000000
 -0.400000 -0.000000 -0.200000      2.000000
 -0.400000  0.200000 -0.000000      2.000000
  0.400000 -0.000000 -0.200000      2.000000
 -0.200000  0.200000  0.000000      2.000000
  0.200000 -0.000000 -0.200000      2.000000
 -0.000000  0.400000 -0.000000      2.000000
 -0.000000  0.000000 -0.400000      2.000000
  0.200000  0.400000  0.000000      2.000000
 -0.200000 -0.000000 -0.400000      2.000000
  0.400000  0.400000 -0.000000      2.000000
 -0.400000 -0.000000 -0.400000      2.000000
 -0.400000  0.400000 -0.000000      2.000000
  0.400000 -0.000000 -0.400000      2.000000
 -0.200000  0.400000  0.000000      2.000000
  0.200000  0.000000 -0.400000      2.000000
  0.000000  0.200000  0.200000      2.000000
  0.200000  0.200000  0.200000      2.000000
  0.400000  0.200000  0.200000      2.000000
 -0.400000  0.200000  0.200000      2.000000
 -0.200000  0.200000  0.200000      2.000000
  0.000000  0.400000  0.200000      2.000000
 -0.000000 -0.200000 -0.400000      2.000000
  0.200000  0.400000  0.200000      2.000000
 -0.200000 -0.200000 -0.400000      2.000000
  0.400000  0.400000  0.200000      2.000000
 -0.400000 -0.200000 -0.400000      2.000000
 -0.400000  0.400000  0.200000      2.000000
  0.400000 -0.200000 -0.400000      2.000000
 -0.200000  0.400000  0.200000      2.000000
  0.200000 -0.200000 -0.400000      2.000000
 -0.000000 -0.400000  0.200000      2.000000
  0.000000 -0.200000  0.400000      2.000000
  0.200000 -0.400000  0.200000      2.000000
 -0.200000 -0.200000  0.400000      2.000000
  0.400000 -0.400000  0.200000      2.000000
 -0.400000 -0.200000  0.400000      2.000000
 -0.400000 -0.400000  0.200000      2.000000
  0.400000 -0.200000  0.400000      2.000000
 -0.200000 -0.400000  0.200000      2.000000
  0.200000 -0.200000  0.400000      2.000000
  0.000000 -0.200000  0.200000      2.000000
  0.200000 -0.200000  0.200000      2.000000
 -0.200000 -0.200000  0.200000      2.000000
  0.400000 -0.200000  0.200000      2.000000
 -0.400000 -0.200000  0.200000      2.000000
  0.000000  0.400000  0.400000      2.000000
  0.200000  0.400000  0.400000      2.000000
  0.400000  0.400000  0.400000      2.000000
 -0.400000  0.400000  0.400000      2.000000
 -0.200000  0.400000  0.400000      2.000000
  0.000000 -0.400000  0.400000      2.000000
  0.200000 -0.400000  0.400000      2.000000
 -0.200000 -0.400000  0.400000      2.000000
  0.400000 -0.400000  0.400000      2.000000
 -0.400000 -0.400000  0.400000      2.000000

 Following cartesian coordinates:
            Coordinates               Weight
  0.000000  0.000000  0.000000      1.000000
 -0.000000 -0.030115  0.021308      2.000000
 -0.000000 -0.060231  0.042617      2.000000
 -0.030081  0.000000 -0.021308      2.000000
 -0.030081 -0.000000  0.021308      2.000000
 -0.030081 -0.030115  0.000000      2.000000
 -0.030081  0.030115 -0.000000      2.000000
 -0.030081 -0.060231  0.021309      2.000000
 -0.030081  0.060231 -0.021309      2.000000
 -0.030081  0.060231 -0.063925      2.000000
 -0.030081 -0.060231  0.063925      2.000000
 -0.030081  0.030116 -0.042616      2.000000
 -0.030081 -0.030116  0.042616      2.000000
 -0.060163  0.000000 -0.042616      2.000000
 -0.060163 -0.000000  0.042616      2.000000
 -0.060163 -0.030115 -0.021308      2.000000
 -0.060163  0.030115  0.021308      2.000000
 -0.060163 -0.060230  0.000000      2.000000
 -0.060163  0.060230 -0.000000      2.000000
 -0.060163  0.060231 -0.085233      2.000000
 -0.060163 -0.060231  0.085233      2.000000
 -0.060163  0.030116 -0.063925      2.000000
 -0.060163 -0.030116  0.063925      2.000000
 -0.000000  0.000000 -0.042616      2.000000
 -0.000000 -0.030115 -0.021308      2.000000
 -0.000000 -0.060230  0.000000      2.000000
  0.000000  0.060231 -0.085233      2.000000
 -0.000000  0.030116 -0.063925      2.000000
 -0.030081  0.000001 -0.063924      2.000000
 -0.030081 -0.000001  0.063924      2.000000
 -0.030081 -0.030115 -0.042616      2.000000
 -0.030081  0.030115  0.042616      2.000000
 -0.030081 -0.060230 -0.021308      2.000000
 -0.030081  0.060230  0.021308      2.000000
 -0.030081  0.060231 -0.106541      2.000000
 -0.030081 -0.060231  0.106541      2.000000
 -0.030081  0.030116 -0.085233      2.000000
 -0.030081 -0.030116  0.085233      2.000000
  0.090244 -0.000000  0.021308      2.000000
  0.090244  0.000000 -0.021308      2.000000
  0.090244 -0.030116  0.042616      2.000000
  0.090244  0.030116 -0.042616      2.000000
  0.090244 -0.060231  0.063925      2.000000
  0.090244  0.060231 -0.063925      2.000000
  0.090244  0.060231 -0.021309      2.000000
  0.090244 -0.060231  0.021309      2.000000
  0.090244  0.030115 -0.000000      2.000000
  0.090244 -0.030115  0.000000      2.000000
  0.060163  0.000000  0.000000      2.000000
  0.060163 -0.030115  0.021308      2.000000
  0.060163  0.030115 -0.021308      2.000000
  0.060163 -0.060231  0.042617      2.000000
  0.060163  0.060231 -0.042617      2.000000
 -0.000000  0.000001 -0.085232      2.000000
 -0.000000 -0.030115 -0.063924      2.000000
 -0.000000 -0.060230 -0.042616      2.000000
 -0.000000  0.060231 -0.127849      2.000000
 -0.000000  0.030116 -0.106541      2.000000
  0.120326  0.000000  0.000000      2.000000
  0.120326 -0.030115  0.021308      2.000000
  0.120326  0.030115 -0.021308      2.000000
  0.120326 -0.060231  0.042617      2.000000
  0.120326  0.060231 -0.042617      2.000000

 SYSTEM =  unknown system
 POSCAR =  Ca6 Si2 O2

 Startparameter for this run:
   NWRITE =      2    write-flag & timer
[...]
  the test charge radii are     1.1137  0.9892  0.7215
  (the norm of the test charge is              1.0000)
       1 -49.3625       2 -49.3625       3 -49.3690       4 -49.3690       5 -49.3690
       6 -49.3690       7 -86.6569       8 -86.6569       9 -75.2691      10 -75.2691

 E-fermi :   4.6763     XC(G=0): -10.1196     alpha+bet :-11.7001

 spin component 1

 k-point     1 :       0.0000    0.0000    0.0000
  band No.  band energies     occupation
      1     -38.4459      1.00000
      2     -38.3713      1.00000
      3     -38.3690      1.00000
      4     -38.3649      1.00000
      5     -38.3349      1.00000
      6     -38.3316      1.00000
      7     -19.6798      1.00000
      8     -18.7972      1.00000
      9     -18.7860      1.00000
     10     -18.7837      1.00000
     11     -18.7196      1.00000
     12     -18.7184      1.00000
     13     -18.7184      1.00000
     14     -18.4792      1.00000
     15     -18.4767      1.00000
     16     -18.4695      1.00000
     17     -18.3473      1.00000
     18     -18.3362      1.00000
     19     -18.3344      1.00000
     20     -18.3335      1.00000
     21     -18.3307      1.00000
     22     -18.3306      1.00000
     23     -18.3167      1.00000
     24     -18.3147      1.00000
     25     -15.7465      1.00000
     26     -14.4301      1.00000
     27      -3.1525      1.00000
     28      -2.2065      1.00000
     29      -1.1430      1.00000
     30      -1.1281      1.00000
     31      -1.1246      1.00000
     32       0.1701      1.00000
     33       0.1734      1.00000
     34       0.1834      1.00000
     35       3.0445      1.00000
     36       3.0460      1.00000
     37       3.0478      1.00000
     38       4.5153      1.00000
     39       4.5389      0.99995
     40       4.5436      0.99991
     41       4.8092      0.00008
     42       4.8127      0.00006
     43       5.6921      0.00000
     44       5.7123      0.00000
     45       5.7462      0.00000
     46       6.0104      0.00000
     47       6.0235      0.00000
     48       6.0271      0.00000

[...]

 soft charge-density along one line, spin component           1
         0         1         2         3         4         5         6         7         8         9
 total charge-density along one line

[...]

------------------------ aborting loop because EDIFF is reached ----------------------------------------

 total charge

# of ion       s       p       d       tot
    1        2.043   5.863   0.270   8.176
    2        2.043   5.863   0.270   8.176
    3        2.043   5.863   0.270   8.175
    4        2.043   5.863   0.270   8.175
    5        2.043   5.863   0.270   8.175
    6        2.043   5.863   0.270   8.175
    7        0.739   0.901   0.000   1.640
    8        0.739   0.901   0.000   1.640
    9        1.562   3.503   0.000   5.065
   10        1.562   3.503   0.000   5.065
tot         16.859  43.986   1.619  62.464

 magnetization (x)

[...]

  FORCE on cell =-STRESS in cart. coord.  units (eV):
  Direction    XX          YY          ZZ          XY          YZ          ZX
  Alpha Z   318.44307   318.44307   318.44307
  Ewald   -1597.95939 -1605.51868 -1594.65859     0.00002     0.00538    -0.00001
  Hartree   634.21003   630.48610   640.03591     0.00002     0.00633    -0.00001
  E(xc)    -370.62546  -370.64311  -370.62789    -0.00000     0.00065     0.00000
  Local     -14.59743    -3.11624   -23.60645    -0.00004    -0.01363     0.00003
  n-local  -203.68260  -203.56661  -203.70286    -0.00000    -0.00102    -0.00000
  augment   168.27502   168.22157   168.19091     0.00000     0.00243    -0.00000
  Kinetic  1066.23877  1065.84859  1066.14617     0.00000    -0.00106     0.00000
  Fock        0.00000     0.00000     0.00000     0.00000     0.00000     0.00000
  Total       0.30201     0.15469     0.22027     0.00000    -0.00093     0.00000
  in kB       2.33506     1.19605     1.70308     0.00000    -0.00716     0.00003

 VOLUME and BASIS-vectors are now :
  energy-cutoff  :      520.00
  volume of cell :      207.22
      direct lattice vectors                 reciprocal lattice vectors
     0.000000061 -6.641166025 -0.000053658    -0.000000001 -0.150576828  0.106541801
    -3.324309215 -3.320620885 -4.693074050    -0.150407186  0.000000859 -0.106540586
     3.324309333 -3.320620945 -4.693074092     0.150407184  0.000000862 -0.106540584

[...]

 FORCES acting on ions
    electron-ion (+dipol)            ewald-force                    non-local-force                 convergence-correction
   0.292E+02 0.131E-04 -.604E-04   -.301E+02 -.190E-04 0.616E-04   0.899E+00 0.590E-05 0.553E-06   0.100E-02 0.269E-05 0.660E-06
   -.292E+02 -.161E-04 0.463E-04   0.301E+02 0.231E-04 -.446E-04   -.899E+00 0.405E-05 -.247E-05   -.984E-03 -.851E-05 -.787E-06
   0.220E-03 -.845E-02 -.164E+02   -.593E-04 0.859E-02 0.171E+02   -.676E-03 -.507E-03 -.714E+00   0.185E-05 0.101E-04 -.458E-03
   0.281E-03 0.844E-02 0.164E+02   -.103E-03 -.860E-02 -.171E+02   -.670E-03 0.501E-03 0.714E+00   -.160E-04 0.227E-04 0.459E-03
   -.586E-03 0.886E-02 0.164E+02   0.409E-03 -.895E-02 -.171E+02   0.695E-03 0.464E-03 0.714E+00   -.781E-05 -.176E-04 0.458E-03
   -.552E-03 -.882E-02 -.164E+02   0.361E-03 0.893E-02 0.171E+02   0.693E-03 -.466E-03 -.714E+00   0.861E-05 0.238E-05 -.459E-03
   0.224E+01 -.164E-04 -.405E-04   -.212E+01 0.155E-04 0.288E-04   -.144E+00 0.212E-05 0.539E-05   0.114E-04 -.722E-06 0.610E-05
   -.224E+01 0.176E-04 -.315E-04   0.212E+01 -.198E-04 0.390E-04   0.144E+00 -.467E-06 0.112E-05   -.739E-05 0.197E-05 -.720E-05
   0.196E-03 -.881E-05 0.406E-04   -.207E-03 0.116E-04 -.426E-04   0.123E-04 0.523E-06 -.236E-05   -.575E-05 -.214E-05 0.449E-05
   0.147E-03 -.199E-04 -.145E-04   -.157E-03 0.183E-04 0.195E-04   0.155E-04 0.222E-05 0.804E-05   -.567E-05 -.593E-06 -.112E-04
   0.148E-03 -.147E-04 0.350E-05   -.591E-14 -.412E-14 -.707E-14   -.145E-03 0.626E-05 0.787E-05   -.191E-05 0.104E-04 -.685E-05

 POSITION                                       TOTAL-FORCE (eV/Angst)
     -0.21120     -3.32060     -2.34655        -0.027653      0.000002      0.000002
      0.21120     -9.96181     -7.03965         0.027660      0.000002     -0.000002
      1.66220     -4.98089     -4.53350        -0.000513     -0.000361     -0.014146
     -1.66211     -4.98093     -4.85267        -0.000509      0.000358      0.014145
     -1.66220     -8.30152     -4.85270         0.000510      0.000351      0.014139
      1.66211     -8.30148     -4.53353         0.000511     -0.000353     -0.014140
      0.00971     -6.64119     -2.34658        -0.022175      0.000000     -0.000000
     -0.00971     -6.64122     -7.03962         0.022174     -0.000001      0.000001
     -3.32431     -6.64120     -4.69310        -0.000004      0.000001     -0.000000
      0.00000     -9.96179     -4.69313        -0.000001     -0.000000      0.000001
    total drift:                                0.000001      0.000002      0.000005

  FREE ENERGIE OF THE ION-ELECTRON SYSTEM (eV)
  free  energy   TOTEN  =      -106.57544296 eV

  energy  without entropy=     -106.57544231  energy(sigma->0) =     -106.57544263

 real space projection operators:
  max/ min on nodes  :       2351.38       2211.34

[...]

 eigenvalue-minimisations  : 19830
 total energy-change (2. order) :-0.1613167E-03  (-0.9283792E-04)
 number of electron      80.0000010 magnetization       0.0000000
 augmentation part       16.6386892 magnetization       0.0000002

[...]

 Broyden mixing:
  rms(total) = 0.47179E-04    rms(broyden)= 0.47179E-04
  rms(prec ) = 0.64156E-04
  weight for this iteration     100.00

 eigenvalues of (default mixing * dielectric matrix)
  average eigenvalue GAMMA=   1.3861
  3.2563  2.3236  1.6781  1.3600  1.3600  0.9259  0.9259  0.7605  0.7605  0.5101

[...]

--------------------------------------- Iteration      2(  12)  ---------------------------------------

 eigenvalue-minimisations  :  6576
 total energy-change (2. order) : 0.5889338E-05  (-0.6866815E-07)
 number of electron      80.0000010 magnetization       0.0000000
 augmentation part       16.6437046 magnetization       0.0000012

 Free energy of the ion-electron system (eV)
  alpha Z        PSCENC =       317.40536941
  Ewald energy   TEWEN  =     -4792.95094829
  -Hartree energ DENC   =     -1906.86944851
  -exchange      EXHF   =         0.00000000
  -V(xc)+E(xc)   XCENC  =       352.80004733
  PAW double counting   =      6065.46187632    -6078.72453391
  entropy T*S    EENTRO =        -0.00000050
  eigenvalues    EBANDS =     -1171.07778208
  atomic energy  EATOM  =      7107.38074292
  Solvation  Ediel_sol  =         0.00000000
  free energy    TOTEN  =      -106.57467731 eV

  energy without entropy =     -106.57467682  energy(sigma->0) =     -106.57467707

 average (electrostatic) potential at core
  the test charge radii are     1.1137  0.9892  0.7215
  (the norm of the test charge is              1.0000)
       1 -49.3937       2 -49.3937       3 -49.4013       4 -49.4013       5 -49.4013
       6 -49.4013       7 -86.6821       8 -86.6821       9 -75.2846      10 -75.2846

 E-fermi :   4.6568     XC(G=0): -10.1051     alpha+bet :-11.6620

[...]

 spin component 2

[...]

 k-point    63 :      -0.4000   -0.4000    0.4000
  band No.  band energies     occupation
      1     -38.4367      1.00000
      2     -38.4293      1.00000
      3     -38.3960      1.00000
      4     -38.3865      1.00000
      5     -38.3771      1.00000
      6     -38.3746      1.00000
      7     -19.2519      1.00000
      8     -19.1815      1.00000
      9     -18.6977      1.00000
     10     -18.6776      1.00000
     11     -18.6699      1.00000
     12     -18.6647      1.00000
     13     -18.6435      1.00000
     14     -18.6228      1.00000
     15     -18.5977      1.00000
     16     -18.5596      1.00000
     17     -18.5221      1.00000
     18     -18.4840      1.00000
     19     -18.4397      1.00000
     20     -18.4380      1.00000
     21     -18.4154      1.00000
     22     -18.3884      1.00000
     23     -18.3845      1.00000
     24     -18.3586      1.00000
     25     -15.0607      1.00000
     26     -14.9791      1.00000
     27      -2.5277      1.00000
     28      -2.4604      1.00000
     29      -0.8161      1.00000
     30      -0.6639      1.00000
     31      -0.5750      1.00000
     32      -0.4078      1.00000
     33      -0.3730      1.00000
     34      -0.1128      1.00000
     35       2.1432      1.00000
     36       2.3991      1.00000
     37       2.7616      1.00000
     38       3.0515      1.00000
     39       3.3471      1.00000
     40       3.5683      1.00000
     41       6.1873      0.00000
     42       6.4068      0.00000
     43       6.4913      0.00000
     44       6.5189      0.00000
     45       7.0648      0.00000
     46       7.1104      0.00000
     47       7.2436      0.00000
     48       7.3231      0.00000

[...]

 soft charge-density along one line, spin component           2
         0         1         2         3         4         5         6         7         8         9
 total charge-density along one line

------------------------ aborting loop because EDIFF is reached ----------------------------------------

[...]

  FORCE on cell =-STRESS in cart. coord.  units (eV):
  Direction    XX          YY          ZZ          XY          YZ          ZX
  Alpha Z   317.40537   317.40537   317.40537
  Ewald   -1595.91331 -1603.81087 -1593.23471     0.00002     0.00286    -0.00000
  Hartree   635.22749   631.08815   640.54669     0.00001     0.00364     0.00000
  E(xc)    -370.55369  -370.56933  -370.55464     0.00000     0.00068    -0.00000
  Local     -16.73274    -4.45491   -24.58465    -0.00003    -0.00825     0.00000
  n-local  -203.53504  -203.43865  -203.56709    -0.00000    -0.00114     0.00000
  augment   168.33715   168.27900   168.26064     0.00000     0.00251     0.00000
  Kinetic  1065.72268  1065.39938  1065.65388     0.00000    -0.00048    -0.00000
  Fock        0.00000     0.00000     0.00000     0.00000     0.00000     0.00000
  Total      -0.04210    -0.10186    -0.07451     0.00000    -0.00017    -0.00000
  in kB      -0.32443    -0.78498    -0.57418     0.00000    -0.00129    -0.00001

 VOLUME and BASIS-vectors are now :
  energy-cutoff  :      520.00
  volume of cell :      207.90
      direct lattice vectors                 reciprocal lattice vectors
     0.000000050 -6.646122193 -0.000024037    -0.000000002 -0.150464064  0.106428034
    -3.329152708 -3.323078024 -4.698046322    -0.150188365  0.000000384 -0.106427489
     3.329152645 -3.323078073 -4.698046244     0.150188367  0.000000386 -0.106427493

  length of vectors
     6.646122193  6.648138428  6.648138365     0.184299650  0.184074320  0.184074324

 FORCES acting on ions
    electron-ion (+dipol)            ewald-force                    non-local-force                 convergence-correction
   0.288E+02 0.149E-04 -.193E-04   -.297E+02 -.146E-04 0.204E-04   0.910E+00 -.715E-06 -.709E-06   0.533E-04 -.568E-07 0.688E-07
   -.288E+02 -.259E-04 0.350E-05   0.297E+02 0.263E-04 -.174E-05   -.910E+00 0.137E-05 -.169E-05   -.538E-04 -.434E-06 -.145E-07
   0.178E-02 -.482E-02 -.166E+02   -.168E-02 0.489E-02 0.173E+02   -.515E-03 -.395E-03 -.715E+00   0.154E-05 -.372E-06 -.201E-04
   0.182E-02 0.482E-02 0.166E+02   -.171E-02 -.488E-02 -.173E+02   -.515E-03 0.395E-03 0.715E+00   0.110E-05 0.107E-05 0.212E-04
   -.201E-02 0.509E-02 0.166E+02   0.192E-02 -.512E-02 -.173E+02   0.491E-03 0.360E-03 0.715E+00   0.628E-06 0.163E-05 0.201E-04
   -.197E-02 -.505E-02 -.166E+02   0.189E-02 0.507E-02 0.173E+02   0.490E-03 -.360E-03 -.715E+00   0.454E-06 -.837E-06 -.208E-04
   0.195E+01 -.149E-04 -.364E-04   -.184E+01 0.146E-04 0.341E-04   -.126E+00 0.953E-06 0.279E-05   -.747E-05 -.367E-07 -.278E-07
   -.195E+01 0.181E-04 -.327E-04   0.184E+01 -.178E-04 0.290E-04   0.126E+00 -.103E-05 0.457E-05   0.748E-05 0.660E-07 -.453E-08
   0.118E-03 -.201E-06 0.389E-04   -.133E-03 0.309E-06 -.387E-04   0.163E-04 0.761E-08 0.316E-06   -.139E-07 0.761E-07 0.272E-07
   0.915E-04 -.243E-04 -.149E-04   -.106E-03 0.252E-04 0.140E-04   0.171E-04 -.386E-06 0.153E-05   -.678E-08 -.561E-08 0.409E-07
   0.208E-03 0.344E-06 0.192E-06   -.108E-13 -.111E-13 0.444E-14   -.216E-03 -.339E-06 0.163E-05   0.314E-05 0.110E-05 0.442E-06

 POSITION                                       TOTAL-FORCE (eV/Angst)
     -0.21284     -3.32307     -2.34903        -0.016496     -0.000001      0.000000
      0.21284     -9.96921     -7.04709         0.016494      0.000001     -0.000000
      1.66460     -4.98461     -4.53898        -0.000408     -0.000330     -0.011824
     -1.66455     -4.98461     -4.85712        -0.000409      0.000331      0.011823
     -1.66460     -8.30767     -4.85714         0.000406      0.000334      0.011823
      1.66455     -8.30767     -4.53899         0.000406     -0.000336     -0.011824
      0.00865     -6.64613     -2.34904        -0.018778      0.000000      0.000000
     -0.00865     -6.64615     -7.04708         0.018780     -0.000001      0.000001
     -3.32915     -6.64614     -4.69806         0.000001      0.000000      0.000000
      0.00000     -9.96920     -4.69807         0.000003      0.000000      0.000000
    total drift:                               -0.000005      0.000001      0.000002

  FREE ENERGIE OF THE ION-ELECTRON SYSTEM (eV)
  free  energy   TOTEN  =      -106.57467731 eV

  energy  without entropy=     -106.57467682  energy(sigma->0) =     -106.57467707

 d Force = 0.1384080E-03[ 0.117E-03, 0.160E-03]  d Energy =-0.7656419E-03 0.904E-03
 d Force = 0.3722945E-01[ 0.360E-01, 0.385E-01]  d Ewald  =-0.5177761E+01 0.521E+01

 Steepest descent step on ions:
 trial-energy change:    0.000766  1 .order   -0.000425   -0.000949    0.000100
  (g-gl).g = 0.949E-03      g.g   = 0.949E-03  gl.gl    = 0.000E+00
 g(Force)  = 0.160E-03   g(Stress)= 0.790E-03 ortho     = 0.000E+00
 gamma     =   0.00000
 trial     =   1.00000
 opt step  =   0.90472  (harmonic =   0.90472) maximal distance =0.00120725
 next E    =  -106.575872   (d E  =  -0.00043)

 reached required accuracy - stopping structural energy minimisation

 total charge

[...]

 magnetization (x)

# of ion       s       p       d       tot
    1       -0.000  -0.000   0.000  -0.000
    2       -0.000  -0.000   0.000  -0.000
    3       -0.000  -0.000   0.000  -0.000
    4       -0.000  -0.000   0.000  -0.000
    5       -0.000  -0.000  -0.000  -0.000
    6       -0.000  -0.000   0.000  -0.000
    7        0.000   0.000   0.000   0.000
    8       -0.000  -0.000   0.000  -0.000
    9        0.000   0.000   0.000   0.000
   10        0.000   0.000   0.000   0.000
tot         -0.000   0.000   0.000   0.000