 vasp.6.1.2 22Jul20 (build Apr 14 2021 21:39:43) complex

 executed on             LinuxIFC date 2022.05.17  10:12:40

 INCAR:
 POTCAR:    PAW_PBE Ca_sv 06Sep2000
 POTCAR:    PAW_PBE Mn_pv 02Aug2007
 POTCAR:    PAW_PBE S 06Sep2000
 POTCAR:    PAW_PBE O 08Apr2002
 POTCAR:    PAW_PBE Ca_sv 06Sep2000
   VRHFIN =Ca: 3s3p4s

   TITEL  = PAW_PBE Ca_sv 06Sep2000
   POMASS =   40.078; ZVAL   =   10.000    mass and valenz
   ENMAX  =  266.622; ENMIN  =  199.967 eV

 POTCAR:    PAW_PBE Mn_pv 02Aug2007
   VRHFIN =Mn: 3p4s3d

   TITEL  = PAW_PBE Mn_pv 02Aug2007
   POMASS =   54.938; ZVAL   =   13.000    mass and valenz
   ENMAX  =  269.864; ENMIN  =  202.398 eV

 POTCAR:    PAW_PBE S 06Sep2000
   VRHFIN =S : s2p4

   TITEL  = PAW_PBE S 06Sep2000
   POMASS =   32.066; ZVAL   =    6.000    mass and valenz
   ENMAX  =  258.689; ENMIN  =  194.016 eV

 POTCAR:    PAW_PBE O 08Apr2002
   VRHFIN =O: s2p4

   TITEL  = PAW_PBE O 08Apr2002
   POMASS =   16.000; ZVAL   =    6.000    mass and valenz
   ENMAX  =  400.000; ENMIN  =  300.000 eV

 Optimization of the real space projectors (new method)

 maximal supplied QI-value         = 16.25
 optimisation between [QCUT,QGAM] = [ 11.54, 23.24] = [ 37.28,151.24] Ry
 Optimized for a Real-space Cutoff    1.58 Angstroem

   l    n(q)    QCUT    max X(q) W(low)/X(q) W(high)/X(q)  e(spline)
   0     11    11.539    11.817    0.25E-04    0.22E-05    0.26E-07
   0     11    11.539     8.461    0.39E-04    0.49E-05    0.55E-07
   1     11    11.539     3.957    0.21E-05    0.44E-05    0.32E-07
   1     11    11.539     4.314    0.56E-04    0.44E-04    0.19E-06
   2     10    11.539    14.565    0.25E-03    0.21E-04    0.75E-06
   2     10    11.539    14.552    0.23E-03    0.22E-04    0.72E-06
 Optimization of the real space projectors (new method)

[...]

   l    n(q)    QCUT    max X(q) W(low)/X(q) W(high)/X(q)  e(spline)
   0      8    11.508   187.594    0.96E-04    0.18E-03    0.54E-07
   0      8    11.508   164.243    0.96E-04    0.18E-03    0.54E-07
   1      8    11.508    67.533    0.18E-03    0.65E-04    0.94E-07
   1      8    11.508    50.729    0.18E-03    0.63E-04    0.92E-07
 Optimization of the real space projectors (new method)

 maximal supplied QI-value         = 24.76
 optimisation between [QCUT,QGAM] = [ 11.64, 23.27] = [ 37.91,151.63] Ry
 Optimized for a Real-space Cutoff    1.14 Angstroem

   l    n(q)    QCUT    max X(q) W(low)/X(q) W(high)/X(q)  e(spline)
   0      8    11.635    20.381    0.10E-03    0.33E-03    0.24E-06
   0      8    11.635    15.268    0.11E-03    0.35E-03    0.26E-06
   1      7    11.635     5.964    0.24E-03    0.31E-03    0.30E-06
   1      7    11.635     5.382    0.22E-03    0.25E-03    0.26E-06
  PAW_PBE Ca_sv 06Sep2000               :
  PAW_PBE Mn_pv 02Aug2007               :
  PAW_PBE S 06Sep2000                   :
  PAW_PBE O 08Apr2002                   :

 POSCAR: Mn4 S6 O24
  positions in direct lattice
  velocities in cartesian coordinates

 METAGGA = SCAN     LMAXTAU =  6    LMIXTAU =  F

 ion  position               nearest neighbor table
   1  0.499  0.494  0.499-  23 2.41  12 2.41  21 2.45  16 2.46  14 2.51  19 2.53
   2  0.647  0.647  0.646-  25 2.08  27 2.09  29 2.11  16 2.20  12 2.21  14 2.22
   3  0.156  0.148  0.149-  28 1.91  17 1.92  15 1.93  24 1.93  13 2.14  26 2.16
   4  0.838  0.848  0.846-  18 1.91  33 1.92  35 1.93  22 1.93  20 2.14  31 2.17
   5  0.348  0.348  0.348-  32 2.08  34 2.09  30 2.10  21 2.20  23 2.21  19 2.23
   6  0.952  0.240  0.539-  30 1.44  14 1.47  22 1.47  24 1.49
   7  0.446  0.057  0.751-  25 1.45  31 1.47  21 1.48  17 1.48
   8  0.549  0.938  0.244-  32 1.45  26 1.47  16 1.48  18 1.49
   9  0.751  0.462  0.043-  13 1.44  27 1.45  23 1.48  33 1.52
  10  0.244  0.533  0.951-  20 1.44  34 1.45  12 1.48  28 1.52
  11  0.043  0.755  0.456-  29 1.44  19 1.47  15 1.47  35 1.49
  12  0.374  0.619  0.743-  10 1.48   2 2.21   1 2.41
  13  0.953  0.344  0.010-   9 1.44   3 2.14
  14  0.749  0.364  0.622-   6 1.47   2 2.22   1 2.51
  15  0.015  0.966  0.331-  11 1.47   3 1.93
  16  0.641  0.736  0.365-   8 1.48   2 2.20   1 2.46
  17  0.312  0.016  0.965-   7 1.48   3 1.92
  18  0.683  0.979  0.030-   8 1.49   4 1.91
  19  0.246  0.630  0.375-  11 1.47   5 2.23   1 2.53
  20  0.042  0.652  0.985-  10 1.44   4 2.14
  21  0.353  0.258  0.630-   7 1.48   5 2.20   1 2.45
  22  0.980  0.029  0.663-   6 1.47   4 1.93
  23  0.621  0.376  0.251-   9 1.48   5 2.21   1 2.41
  24  0.986  0.280  0.337-   6 1.49   3 1.93
  25  0.480  0.908  0.701-   7 1.45   2 2.08
  26  0.367  0.942  0.282-   8 1.47   3 2.16
  27  0.701  0.486  0.904-   9 1.45   2 2.09
  28  0.291  0.333  0.965-  10 1.52   3 1.91
  29  0.908  0.707  0.469-  11 1.44   2 2.11
  30  0.086  0.289  0.526-   6 1.44   5 2.10
  31  0.627  0.056  0.712-   7 1.47   4 2.17
  32  0.516  0.085  0.295-   8 1.45   5 2.08
  33  0.703  0.662  0.029-   9 1.52   4 1.92
  34  0.295  0.509  0.090-  10 1.45   5 2.09
  35  0.008  0.716  0.658-  11 1.49   4 1.93

IMPORTANT INFORMATION: All symmetrisations will be switched off!
NOSYMM: (Re-)initialisation of all symmetry stuff for point group C_1.

                                     Primitive cell

  volume of cell :     445.9038

  direct lattice vectors                    reciprocal lattice vectors
     7.664592626  0.146116988  5.006710384     0.136816362 -0.049765892 -0.008262917
     2.795938970  6.872814971  4.901226137    -0.000888987  0.147971540 -0.002957517
     0.610825759  0.183704486  9.007562111    -0.075563484 -0.052853210  0.117219896

  length of vectors
     9.156117036  8.892405636  9.030117975     0.145820563  0.148003763  0.149143575

  position of ions in fractional coordinates (direct lattice)
     0.498922178  0.493920424  0.499183788
     0.646999432  0.646930252  0.646294866
     0.156064731  0.147867232  0.148906600
     0.838162474  0.847629834  0.846220107
     0.348078765  0.347562738  0.347764571
     0.952069113  0.240117489  0.539161183
     0.445646192  0.056744025  0.750944108
     0.549031393  0.937665662  0.244186160
     0.750786819  0.461783777  0.042769908
     0.244063195  0.533466204  0.951414253
     0.042764250  0.755155045  0.455921747
     0.373974110  0.619374559  0.743399619
     0.953109319  0.343633335  0.009647592
     0.748852813  0.364240617  0.621651606
     0.014972692  0.966234313  0.331414209
     0.641108298  0.735559898  0.364874872
     0.312305645  0.015508244  0.965101495
     0.682549406  0.979257232  0.029772864
     0.245800334  0.630325086  0.374745164
     0.041621403  0.651824975  0.985436480
     0.352892036  0.257929998  0.629820876
     0.980412757  0.029055012  0.663208524
     0.620552047  0.375811582  0.250633336
     0.985926316  0.279848511  0.337424086
     0.480341836  0.908104591  0.701148478
     0.367178490  0.941525289  0.281629914
     0.701242618  0.485732127  0.903607570
     0.291160974  0.333124146  0.964572000
     0.908331037  0.707495177  0.468801993
     0.086271679  0.288625102  0.525578849
     0.626692459  0.055861481  0.712499412
     0.516331627  0.084683343  0.294850536
     0.703046126  0.662363810  0.029331067
     0.295006553  0.508602120  0.090000239
     0.007579668  0.716284841  0.657930543

  ion indices of the primitive-cell ions
   primitive index   ion index
                 1           1
                 2           2
                 3           3
                 4           4
                 5           5
                 6           6
                 7           7
                 8           8
                 9           9
                10          10
                11          11
                12          12
                13          13
                14          14
                15          15
                16          16
                17          17
                18          18
                19          19
                20          20
                21          21
                22          22
                23          23
                24          24
                25          25
                26          26
                27          27
                28          28
                29          29
                30          30
                31          31
                32          32
                33          33
                34          34
                35          35

 KPOINTS: Fully automatic kpoint scheme

Automatic generation of k-mesh.
 generate k-points for:    5    5    5
Space group operators:
 irot       det(A)        alpha          n_x          n_y          n_z        tau_x        tau_y        tau_z
    1     1.000000     0.000000     1.000000     0.000000     0.000000     0.000000     0.000000     0.000000

 Subroutine IBZKPT returns following result:

 Found     63 irreducible k-points:

 Following reciprocal coordinates:
            Coordinates               Weight
  0.000000  0.000000  0.000000      1.000000
  0.200000 -0.000000  0.000000      2.000000
  0.400000 -0.000000 -0.000000      2.000000
  0.000000  0.200000 -0.000000      2.000000
  0.200000  0.200000 -0.000000      2.000000
  0.400000  0.200000 -0.000000      2.000000
 -0.400000  0.200000  0.000000      2.000000
 -0.200000  0.200000 -0.000000      2.000000
  0.000000  0.400000  0.000000      2.000000
  0.200000  0.400000  0.000000      2.000000
  0.400000  0.400000 -0.000000      2.000000
 -0.400000  0.400000 -0.000000      2.000000
 -0.200000  0.400000  0.000000      2.000000
  0.000000 -0.000000  0.200000      2.000000
  0.200000 -0.000000  0.200000      2.000000
  0.400000  0.000000  0.200000      2.000000
 -0.400000  0.000000  0.200000      2.000000
 -0.200000  0.000000  0.200000      2.000000
  0.000000  0.200000  0.200000      2.000000
  0.200000  0.200000  0.200000      2.000000
  0.400000  0.200000  0.200000      2.000000
 -0.400000  0.200000  0.200000      2.000000
 -0.200000  0.200000  0.200000      2.000000
  0.000000  0.400000  0.200000      2.000000
  0.200000  0.400000  0.200000      2.000000
  0.400000  0.400000  0.200000      2.000000
 -0.400000  0.400000  0.200000      2.000000
 -0.200000  0.400000  0.200000      2.000000
  0.000000 -0.400000  0.200000      2.000000
  0.200000 -0.400000  0.200000      2.000000
  0.400000 -0.400000  0.200000      2.000000
 -0.400000 -0.400000  0.200000      2.000000
 -0.200000 -0.400000  0.200000      2.000000
 -0.000000 -0.200000  0.200000      2.000000
  0.200000 -0.200000  0.200000      2.000000
  0.400000 -0.200000  0.200000      2.000000
 -0.400000 -0.200000  0.200000      2.000000
 -0.200000 -0.200000  0.200000      2.000000
  0.000000  0.000000  0.400000      2.000000
  0.200000 -0.000000  0.400000      2.000000
  0.400000  0.000000  0.400000      2.000000
 -0.400000 -0.000000  0.400000      2.000000
 -0.200000 -0.000000  0.400000      2.000000
 -0.000000  0.200000  0.400000      2.000000
  0.200000  0.200000  0.400000      2.000000
  0.400000  0.200000  0.400000      2.000000
 -0.400000  0.200000  0.400000      2.000000
 -0.200000  0.200000  0.400000      2.000000
  0.000000  0.400000  0.400000      2.000000
  0.200000  0.400000  0.400000      2.000000
  0.400000  0.400000  0.400000      2.000000
[...]
     23     -19.7684      1.00000
     24     -19.7517      1.00000
     25     -19.7400      1.00000
     26     -19.5772      1.00000
     27     -19.5666      1.00000
     28     -19.5522      1.00000
     29     -19.5003      1.00000
     30     -19.4468      1.00000
     31     -19.4393      1.00000
     32     -19.4278      1.00000
     33     -19.4013      1.00000
     34     -19.3476      1.00000
     35     -19.3257      1.00000
     36     -19.2697      1.00000
     37     -19.2106      1.00000
     38     -19.2074      1.00000
     39     -19.0161      1.00000
     40     -18.9028      1.00000
     41      -9.5612      1.00000
     42      -8.8038      1.00000
     43      -8.5729      1.00000
     44      -8.5535      1.00000
     45      -8.4982      1.00000
     46      -8.4887      1.00000
     47      -7.2237      1.00000
     48      -6.7894      1.00000
     49      -6.7315      1.00000
     50      -6.5382      1.00000
     51      -6.4262      1.00000
     52      -6.2892      1.00000
     53      -6.2778      1.00000
     54      -6.1837      1.00000
     55      -6.0417      1.00000
     56      -5.9835      1.00000
     57      -5.9723      1.00000
     58      -5.8677      1.00000
     59      -5.8545      1.00000
     60      -5.7821      1.00000
[...]
    150      10.6950      0.00000
    151      10.7061      0.00000
    152      10.7746      0.00000
    153      10.9154      0.00000
    154      11.0647      0.00000
    155      11.1246      0.00000
    156      11.3044      0.00000
    157      11.3180      0.00000
    158      11.3876      0.00000
    159      11.4922      0.00000
    160      11.5897      0.00000
    161      11.7092      0.00000
    162      11.8727      0.00000
    163      12.1789      0.00000
    164      12.5422      0.00000

[...]

 spin component 2

[...]

 k-point    63 :      -0.2000   -0.2000    0.4000
  band No.  band energies     occupation
      1     -46.0314      1.00000
      2     -46.0104      1.00000
      3     -45.9952      1.00000
      4     -45.9654      1.00000
      5     -44.7993      1.00000
      6     -44.7905      1.00000
      7     -42.6306      1.00000
      8     -42.6281      1.00000
      9     -42.6182      1.00000
     10     -42.6122      1.00000
     11     -42.5873      1.00000
     12     -42.5863      1.00000
     13     -39.3878      1.00000
     14     -23.9188      1.00000
     15     -23.8697      1.00000
     16     -23.6846      1.00000
     17     -23.6447      1.00000
     18     -23.6268      1.00000
     19     -23.6081      1.00000
     20     -20.0165      1.00000
     21     -19.8282      1.00000
     22     -19.7834      1.00000
     23     -19.7102      1.00000
     24     -19.6839      1.00000
     25     -19.6758      1.00000
     26     -19.5412      1.00000
     27     -19.5102      1.00000
     28     -19.4631      1.00000
     29     -19.4408      1.00000
     30     -19.4193      1.00000
     31     -19.4011      1.00000
     32     -19.3318      1.00000
     33     -19.3148      1.00000
     34     -19.2752      1.00000
     35     -19.2672      1.00000
     36     -19.2005      1.00000
     37     -19.1853      1.00000
     38     -19.1540      1.00000
     39     -18.9944      1.00000
     40     -18.8580      1.00000
     41      -9.0549      1.00000
     42      -8.7783      1.00000
     43      -8.6857      1.00000
     44      -8.5067      1.00000
     45      -8.4660      1.00000
     46      -8.3696      1.00000
     47      -6.8700      1.00000
     48      -6.4779      1.00000
     49      -6.4420      1.00000
     50      -6.3853      1.00000
     51      -6.2945      1.00000
     52      -6.1675      1.00000
     53      -6.1342      1.00000
     54      -6.0259      1.00000
     55      -5.9120      1.00000
     56      -5.8588      1.00000
     57      -5.7412      1.00000
     58      -5.6875      1.00000
     59      -5.6261      1.00000
     60      -5.5965      1.00000
[...]
    150      10.9126      0.00000
    151      10.9635      0.00000
    152      11.0762      0.00000
    153      11.2013      0.00000
    154      11.2149      0.00000
    155      11.3658      0.00000
    156      11.3742      0.00000
    157      11.5067      0.00000
    158      11.5510      0.00000
    159      11.6624      0.00000
    160      11.7268      0.00000
    161      11.7719      0.00000
    162      12.0507      0.00000
    163      12.3323      0.00000
    164      12.8604      0.00000

 soft charge-density along one line, spin component           1
         0         1         2         3         4         5         6         7         8         9
 total charge-density along one line

 soft charge-density along one line, spin component           2
         0         1         2         3         4         5         6         7         8         9
 total charge-density along one line

------------------------ aborting loop because EDIFF is reached ----------------------------------------

 total charge

# of ion       s       p       d       tot
    1        2.010   5.855   0.158   8.023
    2        0.170   6.149   4.922  11.241
    3        0.281   6.300   4.778  11.359
    4        0.281   6.300   4.778  11.360
    5        0.170   6.149   4.922  11.241
    6        1.221   2.297   0.000   3.518
    7        1.223   2.298   0.000   3.521
    8        1.222   2.298   0.000   3.520
    9        1.222   2.297   0.000   3.519
   10        1.222   2.296   0.000   3.519
   11        1.221   2.296   0.000   3.517
   12        1.588   3.631   0.000   5.218
   13        1.592   3.641   0.000   5.233
   14        1.589   3.631   0.000   5.220
   15        1.586   3.645   0.000   5.231
   16        1.588   3.630   0.000   5.219
   17        1.587   3.631   0.000   5.217
   18        1.587   3.630   0.000   5.217
   19        1.589   3.629   0.000   5.218
   20        1.593   3.640   0.000   5.233
   21        1.589   3.631   0.000   5.220
   22        1.586   3.645   0.000   5.231
   23        1.587   3.631   0.000   5.218
   24        1.585   3.630   0.000   5.215
   25        1.588   3.651   0.000   5.239
   26        1.590   3.622   0.000   5.212
   27        1.587   3.651   0.000   5.238
   28        1.585   3.611   0.000   5.196
   29        1.590   3.645   0.000   5.235
   30        1.591   3.646   0.000   5.236
   31        1.590   3.620   0.000   5.210
   32        1.588   3.649   0.000   5.237
   33        1.585   3.612   0.000   5.197
   34        1.587   3.651   0.000   5.238
   35        1.585   3.631   0.000   5.215
tot         48.353 131.770  19.559 199.681

 magnetization (x)

[...]

  FORCE on cell =-STRESS in cart. coord.  units (eV):
  Direction    XX          YY          ZZ          XY          YZ          ZX
  Alpha Z   653.83956   653.83956   653.83956
  Ewald   -4083.02747 -4015.12278 -4053.81250   191.53283   159.99828  -289.94526
  Hartree  2704.94272  2810.43087  2684.19853    79.66347    27.60288  -270.04196
  E(xc)   -1293.58467 -1293.46146 -1293.33283    -0.07845    -0.22640     0.06451
  Local   -2534.63481 -2709.20891 -2544.30107  -258.21506  -170.97912   550.96538
  n-local  -380.49021  -386.33768  -385.06117     0.14977     3.13903     1.45287
  augment   534.07901   533.71727   535.63339    -6.06393    -6.28122     6.52173
  Kinetic  4398.85305  4406.09848  4402.78837    -6.97488   -13.29971     0.98719
  Fock        0.00000     0.00000     0.00000     0.00000     0.00000     0.00000
  Total      -0.02284    -0.04465    -0.04773     0.01374    -0.04626     0.00446
  in kB      -0.08207    -0.16043    -0.17149     0.04937    -0.16620     0.01602

 VOLUME and BASIS-vectors are now :
  energy-cutoff  :      520.00
  volume of cell :      445.90
      direct lattice vectors                 reciprocal lattice vectors
     7.664592626  0.146116988  5.006710384     0.136816362 -0.049765892 -0.008262917
     2.795938970  6.872814971  4.901226137    -0.000888987  0.147971540 -0.002957517
     0.610825759  0.183704486  9.007562111    -0.075563484 -0.052853210  0.117219896

  length of vectors
     9.156117036  8.892405636  9.030117975     0.145820563  0.148003763  0.149143575

 FORCES acting on ions:
    Electron-Ion                     Ewald-Force                    Non-Local-Force
   0.672E+00 -.409E+01 0.320E+01   -.661E+00 0.406E+01 -.318E+01   -.103E-01 0.338E-01 -.221E-01
   -.131E+02 -.177E+02 -.360E+02   0.139E+02 0.186E+02 0.373E+02   -.746E+00 -.883E+00 -.126E+01
   0.878E+02 0.528E+02 0.110E+03   -.872E+02 -.528E+02 -.110E+03   -.619E+00 -.597E-02 0.666E+00
   -.883E+02 -.522E+02 -.110E+03   0.876E+02 0.521E+02 0.111E+03   0.683E+00 0.992E-01 -.627E+00
   0.118E+02 0.135E+02 0.370E+02   -.125E+02 -.145E+02 -.382E+02   0.733E+00 0.921E+00 0.118E+01
   -.124E+02 0.313E+01 -.931E+02   0.136E+02 -.195E+01 0.956E+02   -.126E+01 -.118E+01 -.257E+01
   0.749E+02 0.225E+02 0.548E+02   -.732E+02 -.232E+02 -.564E+02   -.171E+01 0.726E+00 0.166E+01
   -.737E+02 -.208E+02 -.544E+02   0.718E+02 0.215E+02 0.560E+02   0.190E+01 -.751E+00 -.170E+01
   0.224E+02 0.860E+02 0.552E+02   -.207E+02 -.890E+02 -.576E+02   -.173E+01 0.315E+01 0.239E+01
   -.214E+02 -.866E+02 -.560E+02   0.197E+02 0.897E+02 0.583E+02   0.169E+01 -.321E+01 -.236E+01
   0.102E+02 -.196E+01 0.931E+02   -.113E+02 0.640E+00 -.957E+02   0.119E+01 0.133E+01 0.263E+01
   -.123E+02 -.148E+03 0.447E+02   0.412E+02 0.169E+03 -.683E+02   -.289E+02 -.212E+02 0.236E+02
   -.461E+02 0.126E+03 0.169E+03   0.873E+02 -.151E+03 -.171E+03   -.412E+02 0.245E+02 0.212E+01
   0.109E+03 0.131E+02 -.826E+02   -.147E+03 0.819E+01 0.944E+02   0.378E+02 -.213E+02 -.119E+02
   0.158E+03 -.573E+02 0.163E+03   -.163E+03 0.979E+02 -.172E+03   0.435E+01 -.406E+02 0.897E+01
   -.125E+03 0.871E+02 -.102E+01   0.137E+03 -.128E+03 0.139E+02   -.116E+02 0.406E+02 -.129E+02
   0.165E+03 0.171E+03 0.115E+03   -.195E+03 -.190E+03 -.934E+02   0.294E+02 0.197E+02 -.217E+02
   -.164E+03 -.170E+03 -.117E+03   0.193E+03 0.190E+03 0.961E+02   -.293E+02 -.198E+02 0.213E+02
   -.112E+03 -.108E+02 0.797E+02   0.149E+03 -.109E+02 -.913E+02   -.379E+02 0.217E+02 0.115E+02
   0.462E+02 -.127E+03 -.170E+03   -.874E+02 0.152E+03 0.172E+03   0.413E+02 -.247E+02 -.239E+01
   0.129E+03 -.863E+02 0.387E+01   -.141E+03 0.127E+03 -.172E+02   0.121E+02 -.404E+02 0.133E+02
   -.159E+03 0.608E+02 -.164E+03   0.163E+03 -.102E+03 0.173E+03   -.432E+01 0.410E+02 -.892E+01
   0.132E+02 0.145E+03 -.434E+02   -.421E+02 -.166E+03 0.667E+02   0.289E+02 0.210E+02 -.233E+02
   0.671E+02 -.141E+03 0.132E+02   -.666E+02 0.158E+03 -.490E+02   -.493E+00 -.173E+02 0.359E+02
   0.148E+03 0.271E+02 0.972E+02   -.159E+03 -.565E+02 -.130E+03   0.103E+02 0.294E+02 0.331E+02
   0.107E+03 0.901E+02 -.408E+02   -.150E+03 -.950E+02 0.265E+02   0.426E+02 0.485E+01 0.143E+02
   0.455E+02 0.145E+03 0.111E+03   -.599E+02 -.146E+03 -.154E+03   0.144E+02 0.118E+01 0.433E+02
   -.146E+03 0.133E+02 0.702E+02   0.154E+03 -.446E+02 -.905E+02   -.802E+01 0.314E+02 0.203E+02
   0.194E+02 -.214E+02 0.205E+03   -.535E+02 0.106E+02 -.236E+03   0.341E+02 0.108E+02 0.311E+02
   -.204E+02 0.201E+02 -.204E+03   0.544E+02 -.898E+01 0.235E+03   -.341E+02 -.111E+02 -.311E+02
   -.108E+03 -.882E+02 0.394E+02   0.150E+03 0.933E+02 -.251E+02   -.424E+02 -.518E+01 -.143E+02
   -.149E+03 -.264E+02 -.991E+02   0.160E+03 0.553E+02 0.133E+03   -.108E+02 -.289E+02 -.335E+02
   0.148E+03 -.140E+02 -.700E+02   -.156E+03 0.455E+02 0.901E+02   0.817E+01 -.316E+02 -.201E+02
   -.468E+02 -.144E+03 -.112E+03   0.615E+02 0.145E+03 0.155E+03   -.147E+02 -.975E+00 -.431E+02
   -.687E+02 0.140E+03 -.110E+02   0.681E+02 -.158E+03 0.467E+02   0.571E+00 0.173E+02 -.357E+02
   -.281E+00 -.564E+00 0.318E+00   -.568E-13 -.284E-13 -.682E-12   0.264E+00 0.552E+00 -.290E+00

 POSITION                                       TOTAL-FORCE (eV/Angst)
      5.50992      3.55923      9.41520         0.000498     -0.004188     -0.003262
      7.16254      4.65950     12.23163         0.007711      0.002084     -0.000444
      1.70056      1.06642      2.84739         0.016550      0.014576      0.013725
      9.31099      6.10353     15.97324         0.006671     -0.005563     -0.012823
      3.85207      2.50348      6.57872         0.003714     -0.010424     -0.000879
      8.29791      1.88844     10.80013        -0.001026      0.017996     -0.001659
      4.03305      0.59306      9.27351        -0.000705      0.001991     -0.010186
      6.97891      6.56948      9.54407        -0.001936     -0.009561      0.011760
      7.07172      3.29131      6.40753         0.003417      0.002543     -0.004915
      3.94333      3.87686     12.40652        -0.016211      0.009873     -0.001483
      2.71763      5.28004      8.02204        -0.009380     -0.022175      0.007826
      5.05218      4.44806     11.60429        -0.000121     -0.000065      0.001106
      8.27187      2.50277      6.54307        -0.001851      0.003077     -0.002785
      7.13777      2.72698     11.13408        -0.000308      0.000379     -0.002563
      3.01873      6.70382      7.79593        -0.002194      0.017120     -0.008392
      7.19329      5.21607     10.10162         0.001939      0.011312      0.000689
      3.02656      0.32951     10.33284        -0.000150      0.000421      0.014237
      7.98759      6.83546      8.48507         0.001538      0.002571     -0.005241
      3.87521      4.43687      7.69556         0.000036     -0.005374     -0.005817
      2.74340      4.66698     12.27951         0.007289     -0.009743      0.004514
      3.81064      1.93997      8.70415        -0.003413     -0.002691     -0.003387
      8.00081      0.46478     11.02494        -0.004487     -0.014401      0.006538
      5.96012      2.71960      7.20646        -0.002126     -0.004680     -0.001932
      8.54527      2.12939      9.34722        -0.011836      0.002638      0.005173
      6.64891      6.44023     13.17140        -0.004618     -0.003092     -0.011147
      5.61875      6.57632      8.98978        -0.003701      0.004978      0.008423
      7.28476      3.60681     14.03090        -0.002773     -0.004663      0.001590
      3.75221      2.50924     11.77892         0.004103      0.016008      0.008611
      9.22646      5.08133     12.23811         0.002883     -0.005457      0.002322
      1.78925      2.09282      6.58074         0.004511      0.000092     -0.002419
      5.39474      0.60639      9.82934         0.001782      0.001600     -0.005493
      4.37434      0.71162      5.65606         0.009511      0.008667      0.003917
      7.25841      4.66042      7.03054        -0.007314     -0.012543     -0.001314
      3.73810      3.55517      4.78047        -0.003750      0.002426     -0.001783
      2.46266      5.04487      9.47497         0.005746     -0.005733     -0.002507
    total drift:                               -0.016695     -0.011443      0.027996

  FREE ENERGIE OF THE ION-ELECTRON SYSTEM (eV)
  free  energy   TOTEN  =      -354.41000756 eV

  energy  without entropy=     -354.41000756  energy(sigma->0) =     -354.41000756

 reached required accuracy - stopping structural energy minimisation

 total charge

[...]

 magnetization (x)

# of ion       s       p       d       tot
    1        0.000   0.000   0.001   0.002
    2        0.013   0.017   4.531   4.561
    3        0.016   0.021   3.699   3.736
    4        0.016   0.021   3.697   3.735
    5        0.013   0.017   4.532   4.562
    6        0.005   0.012   0.000   0.018
    7        0.005   0.014   0.000   0.019
    8        0.005   0.014   0.000   0.019
    9        0.006   0.014   0.000   0.019
   10        0.006   0.014   0.000   0.019
   11        0.005   0.012   0.000   0.018
   12        0.005   0.008   0.000   0.013
   13        0.009   0.037   0.000   0.046
   14        0.005   0.011   0.000   0.015
   15        0.002   0.012   0.000   0.014
   16        0.005   0.025   0.000   0.030
   17        0.003   0.008   0.000   0.011
   18        0.003   0.007   0.000   0.010
   19        0.005   0.010   0.000   0.015
   20        0.009   0.037   0.000   0.046
   21        0.005   0.025   0.000   0.030
   22        0.002   0.012   0.000   0.015
   23        0.005   0.008   0.000   0.013
   24        0.002   0.007   0.000   0.009
   25        0.006   0.007   0.000   0.013
   26        0.008   0.041   0.000   0.049
   27        0.006   0.024   0.000   0.030
   28        0.002   0.004   0.000   0.006
   29        0.006   0.011   0.000   0.017
   30        0.006   0.011   0.000   0.017
   31        0.008   0.040   0.000   0.049
   32        0.006   0.007   0.000   0.013
   33        0.002   0.006   0.000   0.008
   34        0.006   0.024   0.000   0.030
   35        0.002   0.007   0.000   0.009
tot          0.210   0.547  16.460  17.217