 vasp.6.1.2 22Jul20 (build Dec 05 2020 14:50:36) complex

 executed on         CrayXC-Intel date 2021.06.08  08:54:32

 INCAR:
 POTCAR:    PAW_PBE Ca_sv 06Sep2000
 POTCAR:    PAW_PBE Ti_pv 07Sep2000
 POTCAR:    PAW_PBE Si 05Jan2001
 POTCAR:    PAW_PBE O 08Apr2002
 POTCAR:    PAW_PBE Ca_sv 06Sep2000
   VRHFIN =Ca: 3s3p4s

   TITEL  = PAW_PBE Ca_sv 06Sep2000
   POMASS =   40.078; ZVAL   =   10.000    mass and valenz
   ENMAX  =  266.622; ENMIN  =  199.967 eV

 POTCAR:    PAW_PBE Ti_pv 07Sep2000
   VRHFIN =Ti: d3 s1

   TITEL  = PAW_PBE Ti_pv 07Sep2000
   POMASS =   47.880; ZVAL   =   10.000    mass and valenz
   ENMAX  =  222.335; ENMIN  =  166.751 eV

 POTCAR:    PAW_PBE Si 05Jan2001
   VRHFIN =Si: s2p2

   TITEL  = PAW_PBE Si 05Jan2001
   POMASS =   28.085; ZVAL   =    4.000    mass and valenz
   ENMAX  =  245.345; ENMIN  =  184.009 eV

 POTCAR:    PAW_PBE O 08Apr2002
   VRHFIN =O: s2p4

   TITEL  = PAW_PBE O 08Apr2002
   POMASS =   16.000; ZVAL   =    6.000    mass and valenz
   ENMAX  =  400.000; ENMIN  =  300.000 eV

 Optimization of the real space projectors (new method)

 maximal supplied QI-value         = 16.25
 optimisation between [QCUT,QGAM] = [ 11.54, 23.24] = [ 37.28,151.24] Ry
 Optimized for a Real-space Cutoff    1.58 Angstroem

   l    n(q)    QCUT    max X(q) W(low)/X(q) W(high)/X(q)  e(spline)
   0     11    11.539    11.817    0.25E-04    0.22E-05    0.26E-07
   0     11    11.539     8.461    0.39E-04    0.49E-05    0.55E-07
   1     11    11.539     3.957    0.21E-05    0.44E-05    0.32E-07
   1     11    11.539     4.314    0.56E-04    0.44E-04    0.19E-06
   2     10    11.539    14.565    0.25E-03    0.21E-04    0.75E-06
   2     10    11.539    14.552    0.23E-03    0.22E-04    0.72E-06
 Optimization of the real space projectors (new method)

[...]

   l    n(q)    QCUT    max X(q) W(low)/X(q) W(high)/X(q)  e(spline)
   0      8    11.508   159.560    0.71E-04    0.15E-03    0.51E-07
   0      8    11.508   115.863    0.70E-04    0.15E-03    0.51E-07
   1      8    11.508    88.339    0.16E-03    0.38E-04    0.82E-07
   1      8    11.508    48.592    0.15E-03    0.36E-04    0.79E-07
 Optimization of the real space projectors (new method)

 maximal supplied QI-value         = 24.76
 optimisation between [QCUT,QGAM] = [ 11.64, 23.27] = [ 37.91,151.63] Ry
 Optimized for a Real-space Cutoff    1.14 Angstroem

   l    n(q)    QCUT    max X(q) W(low)/X(q) W(high)/X(q)  e(spline)
   0      8    11.635    20.381    0.10E-03    0.33E-03    0.24E-06
   0      8    11.635    15.268    0.11E-03    0.35E-03    0.26E-06
   1      7    11.635     5.964    0.24E-03    0.31E-03    0.30E-06
   1      7    11.635     5.382    0.22E-03    0.25E-03    0.26E-06
  PAW_PBE Ca_sv 06Sep2000               :
  PAW_PBE Ti_pv 07Sep2000               :
  PAW_PBE Si 05Jan2001                  :
  PAW_PBE O 08Apr2002                   :

 POSCAR: Ca4 Ti4 Si4 O20
  positions in direct lattice
  velocities in cartesian coordinates

 METAGGA = SCAN     LMAXTAU =  6    LMIXTAU =  F

 ion  position               nearest neighbor table
   1  0.748  0.581  0.750-  15 2.25  20 2.42  27 2.42  21 2.43  30 2.43  12 3.06
   2  0.752  0.081  0.250-  16 2.25  19 2.42  28 2.42  22 2.43  29 2.43  11 3.06
   3  0.252  0.419  0.250-  13 2.25  18 2.42  25 2.42  23 2.43  32 2.43  10 3.06
   4  0.248  0.919  0.750-  14 2.25  17 2.42  26 2.42  24 2.43  31 2.43   9 3.06
   5  0.999  0.750  0.250-  13 1.88  16 1.88  26 2.00  20 2.00  21 2.03  31 2.03
   6  0.501  0.250  0.750-  14 1.88  15 1.88  25 2.00  19 2.00  22 2.03  32 2.03
   7  0.001  0.250  0.750-  15 1.88  14 1.88  28 2.00  18 2.00  23 2.03  29 2.03
   8  0.499  0.750  0.250-  16 1.88  13 1.88  27 2.00  17 2.00  24 2.03  30 2.03
   9  0.250  0.569  0.750-  26 1.63  17 1.63  23 1.64  32 1.64   4 3.06
  10  0.250  0.069  0.250-  25 1.63  18 1.63  24 1.64  31 1.64   3 3.06
  11  0.750  0.431  0.250-  28 1.63  19 1.63  21 1.64  30 1.64   2 3.06
  12  0.750  0.931  0.750-  27 1.63  20 1.63  22 1.64  29 1.64   1 3.06
  13  0.250  0.677  0.250-   5 1.88   8 1.88   3 2.25
  14  0.250  0.177  0.750-   6 1.88   7 1.88   4 2.25
  15  0.750  0.323  0.750-   7 1.88   6 1.88   1 2.25
  16  0.750  0.823  0.250-   8 1.88   5 1.88   2 2.25
  17  0.410  0.685  0.933-   9 1.63   8 2.00   4 2.42
  18  0.090  0.185  0.067-  10 1.63   7 2.00   3 2.42
  19  0.590  0.315  0.067-  11 1.63   6 2.00   2 2.42
  20  0.910  0.815  0.933-  12 1.63   5 2.00   1 2.42
  21  0.881  0.538  0.147-  11 1.64   5 2.03   1 2.43
  22  0.619  0.038  0.853-  12 1.64   6 2.03   2 2.43
  23  0.119  0.462  0.853-   9 1.64   7 2.03   3 2.43
  24  0.381  0.962  0.147-  10 1.64   8 2.03   4 2.43
  25  0.411  0.184  0.435-  10 1.63   6 2.00   3 2.42
  26  0.089  0.684  0.565-   9 1.63   5 2.00   4 2.42
  27  0.589  0.816  0.565-  12 1.63   8 2.00   1 2.42
  28  0.911  0.316  0.435-  11 1.63   7 2.00   2 2.42
  29  0.882  0.038  0.648-  12 1.64   7 2.03   2 2.43
  30  0.618  0.538  0.352-  11 1.64   8 2.03   1 2.43
  31  0.118  0.962  0.352-  10 1.64   5 2.03   4 2.43
  32  0.382  0.462  0.648-   9 1.64   6 2.03   3 2.43

IMPORTANT INFORMATION: All symmetrisations will be switched off!
NOSYMM: (Re-)initialisation of all symmetry stuff for point group C_1.

                                     Primitive cell

  volume of cell :     371.6871

  direct lattice vectors                    reciprocal lattice vectors
     6.464329842  0.000002807 -2.856718565     0.154619043 -0.000000049 -0.000172052
     0.000002790  8.724111014 -0.000002247    -0.000000037  0.114624860  0.000000030
     0.007330191 -0.000001702  6.587479132     0.067051915  0.000000018  0.151728526

  length of vectors
     7.067418289  8.724111014  6.587483211     0.154619139  0.114624860  0.165884010

  position of ions in fractional coordinates (direct lattice)
     0.747617292  0.581019944  0.749796968
     0.752384472  0.081024857  0.250209533
     0.252384719  0.418974963  0.250209176
     0.247617770  0.918980230  0.749796778
     0.999489415  0.749747988  0.249586777
     0.500513626  0.249741073  0.750410842
     0.000513723  0.250258963  0.750411014
     0.499489322  0.750251762  0.249586744
     0.249681683  0.568500346  0.749604447
     0.250316120  0.068514861  0.250396478
     0.750316779  0.431484933  0.250396373
     0.749681533  0.931499809  0.749604674
     0.249558646  0.677225282  0.249580004
     0.250437985  0.177226531  0.750412431
     0.750437894  0.322773631  0.750412363
     0.749558440  0.822774680  0.249579904
     0.409698109  0.684715869  0.933267535
     0.090317565  0.184721277  0.066744063
     0.590317517  0.315279102  0.066744479
     0.909697977  0.815283964  0.933267665
     0.880818729  0.537953496  0.147496037
     0.619171922  0.037937701  0.852501411
     0.119171669  0.462062656  0.852501121
     0.380817490  0.962046004  0.147495368
     0.410898291  0.183779881  0.435028015
     0.089109545  0.683786202  0.564963765
     0.589109418  0.816214235  0.564963562
     0.910898185  0.316219637  0.435028536
     0.882112781  0.037648035  0.648367957
     0.617874612  0.537636750  0.351634099
     0.117874071  0.962363434  0.351634094
     0.382112700  0.462351903  0.648367788

  ion indices of the primitive-cell ions
   primitive index   ion index
                 1           1
                 2           2
                 3           3
                 4           4
                 5           5
                 6           6
                 7           7
                 8           8
                 9           9
                10          10
                11          11
                12          12
                13          13
                14          14
                15          15
                16          16
                17          17
                18          18
                19          19
                20          20
                21          21
                22          22
                23          23
                24          24
                25          25
                26          26
                27          27
                28          28
                29          29
                30          30
                31          31
                32          32

 KPOINTS: K-points file

Automatic generation of k-mesh.
Space group operators:
 irot       det(A)        alpha          n_x          n_y          n_z        tau_x        tau_y        tau_z
    1     1.000000     0.000000     1.000000     0.000000     0.000000     0.000000     0.000000     0.000000

 Subroutine IBZKPT returns following result:

 Found     51 irreducible k-points:

 Following reciprocal coordinates:
            Coordinates               Weight
  0.000000  0.000000  0.000000      1.000000
  0.200000 -0.000000  0.000000      2.000000
  0.400000 -0.000000  0.000000      2.000000
  0.000000  0.250000  0.000000      2.000000
  0.200000  0.250000  0.000000      2.000000
 -0.200000  0.250000 -0.000000      2.000000
  0.400000  0.250000 -0.000000      2.000000
 -0.400000  0.250000  0.000000      2.000000
  0.000000  0.500000  0.000000      1.000000
  0.200000  0.500000  0.000000      2.000000
  0.400000  0.500000 -0.000000      2.000000
  0.000000 -0.000000  0.200000      2.000000
  0.200000 -0.000000  0.200000      2.000000
  0.400000 -0.000000  0.200000      2.000000
 -0.400000  0.000000  0.200000      2.000000
 -0.200000  0.000000  0.200000      2.000000
  0.000000  0.250000  0.200000      2.000000
  0.000000  0.250000 -0.200000      2.000000
  0.200000  0.250000  0.200000      2.000000
 -0.200000  0.250000 -0.200000      2.000000
  0.400000  0.250000  0.200000      2.000000
 -0.400000  0.250000 -0.200000      2.000000
 -0.400000  0.250000  0.200000      2.000000
  0.400000  0.250000 -0.200000      2.000000
 -0.200000  0.250000  0.200000      2.000000
  0.200000  0.250000 -0.200000      2.000000
  0.000000  0.500000  0.200000      2.000000
  0.200000  0.500000  0.200000      2.000000
  0.400000  0.500000  0.200000      2.000000
 -0.400000  0.500000  0.200000      2.000000
 -0.200000  0.500000  0.200000      2.000000
  0.000000 -0.000000  0.400000      2.000000
  0.200000 -0.000000  0.400000      2.000000
  0.400000 -0.000000  0.400000      2.000000
 -0.400000  0.000000  0.400000      2.000000
 -0.200000  0.000000  0.400000      2.000000
 -0.000000  0.250000  0.400000      2.000000
 -0.000000  0.250000 -0.400000      2.000000
  0.200000  0.250000  0.400000      2.000000
 -0.200000  0.250000 -0.400000      2.000000
  0.400000  0.250000  0.400000      2.000000
 -0.400000  0.250000 -0.400000      2.000000
 -0.400000  0.250000  0.400000      2.000000
  0.400000  0.250000 -0.400000      2.000000
 -0.200000  0.250000  0.400000      2.000000
  0.200000  0.250000 -0.400000      2.000000
  0.000000  0.500000  0.400000      2.000000
  0.200000  0.500000  0.400000      2.000000
  0.400000  0.500000  0.400000      2.000000
 -0.400000  0.500000  0.400000      2.000000
 -0.200000  0.500000  0.400000      2.000000

 Following cartesian coordinates:
            Coordinates               Weight
  0.000000  0.000000  0.000000      1.000000
  0.030924 -0.000000 -0.000034      2.000000
[...]
     32     -16.4800      1.00000
     33     -15.6850      1.00000
     34     -15.5150      1.00000
     35     -15.5012      1.00000
     36     -15.4939      1.00000
     37     -15.4880      1.00000
     38     -15.4861      1.00000
     39     -15.4683      1.00000
     40     -15.4373      1.00000
     41     -15.4280      1.00000
     42     -15.3466      1.00000
     43     -15.2244      1.00000
     44     -15.1251      1.00000
     45     -14.7990      1.00000
     46     -14.7098      1.00000
     47     -13.9009      1.00000
     48     -13.8976      1.00000
     49      -4.3207      1.00000
     50      -3.9144      1.00000
     51      -3.6831      1.00000
     52      -3.3133      1.00000
     53      -2.6454      1.00000
     54      -2.5399      1.00000
     55      -2.5358      1.00000
     56      -2.2688      1.00000
     57      -2.2165      1.00000
     58      -2.0554      1.00000
     59      -1.9776      1.00000
     60      -1.9508      1.00000
[...]
    118       6.8638      0.00000
    119       7.6165      0.00000
    120       7.6322      0.00000
    121       7.8200      0.00000
    122       8.2654      0.00000
    123       8.3121      0.00000
    124       8.4843      0.00000
    125       8.6117      0.00000
    126       8.7991      0.00000
    127       9.1757      0.00000
    128       9.6470      0.00000
    129       9.7927      0.00000
    130      10.1697      0.00000
    131      10.1765      0.00000
    132      10.2769      0.00000

[...]

 spin component 2

[...]

 k-point    51 :      -0.2000    0.5000    0.4000
  band No.  band energies     occupation
      1     -36.8487      1.00000
      2     -36.8487      1.00000
      3     -36.8445      1.00000
      4     -36.8445      1.00000
      5     -32.1357      1.00000
      6     -32.1347      1.00000
      7     -32.1063      1.00000
      8     -32.1054      1.00000
      9     -32.0887      1.00000
     10     -32.0877      1.00000
     11     -32.0474      1.00000
     12     -32.0468      1.00000
     13     -32.0464      1.00000
     14     -32.0457      1.00000
     15     -31.9959      1.00000
     16     -31.9948      1.00000
     17     -17.6815      1.00000
     18     -17.6815      1.00000
     19     -17.5239      1.00000
     20     -17.5238      1.00000
     21     -17.3436      1.00000
     22     -17.3435      1.00000
     23     -17.2524      1.00000
     24     -17.2523      1.00000
     25     -17.0746      1.00000
     26     -17.0746      1.00000
     27     -17.0373      1.00000
     28     -17.0372      1.00000
     29     -16.4943      1.00000
     30     -16.4943      1.00000
     31     -16.4043      1.00000
     32     -16.4043      1.00000
     33     -15.7861      1.00000
     34     -15.7861      1.00000
     35     -15.6792      1.00000
     36     -15.6789      1.00000
     37     -15.4455      1.00000
     38     -15.4453      1.00000
     39     -15.4304      1.00000
     40     -15.4300      1.00000
     41     -15.3407      1.00000
     42     -15.3402      1.00000
     43     -15.2830      1.00000
     44     -15.2822      1.00000
     45     -14.6295      1.00000
     46     -14.6287      1.00000
     47     -13.9845      1.00000
     48     -13.9836      1.00000
     49      -4.0136      1.00000
     50      -4.0136      1.00000
     51      -3.7011      1.00000
     52      -3.7010      1.00000
     53      -2.3141      1.00000
     54      -2.3138      1.00000
     55      -2.2333      1.00000
     56      -2.2333      1.00000
     57      -2.1441      1.00000
     58      -2.1441      1.00000
     59      -1.8747      1.00000
     60      -1.8747      1.00000
[...]
    118       6.9795      0.00000
    119       7.5180      0.00000
    120       7.5190      0.00000
    121       8.0819      0.00000
    122       8.0821      0.00000
    123       8.5316      0.00000
    124       8.5318      0.00000
    125       8.7968      0.00000
    126       8.7978      0.00000
    127       9.6742      0.00000
    128       9.6744      0.00000
    129       9.8921      0.00000
    130       9.8927      0.00000
    131      10.2160      0.00000
    132      10.2242      0.00000

 soft charge-density along one line, spin component           1
         0         1         2         3         4         5         6         7         8         9
 total charge-density along one line

 soft charge-density along one line, spin component           2
         0         1         2         3         4         5         6         7         8         9
 total charge-density along one line

------------------------ aborting loop because EDIFF is reached ----------------------------------------

 total charge

# of ion       s       p       d       tot
    1        2.020   5.869   0.222   8.110
    2        2.020   5.869   0.222   8.110
    3        2.020   5.869   0.222   8.110
    4        2.020   5.869   0.222   8.110
    5        0.354   6.489   1.738   8.580
    6        0.354   6.489   1.738   8.580
    7        0.354   6.489   1.738   8.580
    8        0.354   6.489   1.738   8.580
    9        0.654   1.003   0.000   1.657
   10        0.654   1.003   0.000   1.657
   11        0.654   1.003   0.000   1.657
   12        0.654   1.003   0.000   1.657
   13        1.585   3.555   0.000   5.140
   14        1.585   3.555   0.000   5.140
   15        1.585   3.555   0.000   5.140
   16        1.585   3.555   0.000   5.140
   17        1.567   3.612   0.000   5.179
   18        1.567   3.612   0.000   5.179
   19        1.567   3.612   0.000   5.179
   20        1.567   3.612   0.000   5.179
   21        1.566   3.615   0.000   5.181
   22        1.566   3.615   0.000   5.181
   23        1.566   3.615   0.000   5.181
   24        1.566   3.615   0.000   5.181
   25        1.567   3.613   0.000   5.180
   26        1.567   3.613   0.000   5.180
   27        1.567   3.613   0.000   5.180
   28        1.567   3.613   0.000   5.180
   29        1.565   3.615   0.000   5.180
   30        1.565   3.615   0.000   5.180
   31        1.565   3.615   0.000   5.180
   32        1.565   3.615   0.000   5.180
tot         43.509 125.481   7.839 176.830

 magnetization (x)

[...]

  FORCE on cell =-STRESS in cart. coord.  units (eV):
  Direction    XX          YY          ZZ          XY          YZ          ZX
  Alpha Z   837.32702   837.32702   837.32702
  Ewald   -4382.87444 -3782.39526 -4677.00489    -0.00035     0.00073   128.53571
  Hartree  1456.75433  1725.23901  1256.21405    -0.00045     0.00092    78.10804
  E(xc)   -1086.35191 -1086.67603 -1086.22816    -0.00001     0.00000     0.29044
  Local    -387.24861 -1235.56359   109.30571     0.00085    -0.00166  -209.92221
  n-local  -550.04006  -555.17645  -557.37942     0.00003    -0.00000    -4.76262
  augment   462.72270   460.21787   460.83741    -0.00001     0.00000     0.33287
  Kinetic  3649.68280  3637.24363  3656.93135    -0.00007     0.00012     7.32516
  Fock        0.00000     0.00000     0.00000     0.00000     0.00000     0.00000
  Total      -0.02816     0.21620     0.00308    -0.00000     0.00012    -0.09260
  in kB      -0.12140     0.93194     0.01327    -0.00001     0.00051    -0.39915

 VOLUME and BASIS-vectors are now :
  energy-cutoff  :      520.00
  volume of cell :      371.69
      direct lattice vectors                 reciprocal lattice vectors
     6.464329842  0.000002807 -2.856718565     0.154619043 -0.000000049 -0.000172052
     0.000002790  8.724111014 -0.000002247    -0.000000037  0.114624860  0.000000030
     0.007330191 -0.000001702  6.587479132     0.067051915  0.000000018  0.151728526

  length of vectors
     7.067418289  8.724111014  6.587483211     0.154619139  0.114624860  0.165884010

 FORCES acting on ions
    electron-ion (+dipol)            ewald-force                    non-local-force                 convergence-correction
   -.242E+01 -.628E+02 0.916E+00   0.239E+01 0.613E+02 -.879E+00   0.254E-01 0.143E+01 -.331E-01   0.167E-05 -.298E-03 -.937E-05
   0.244E+01 -.627E+02 -.908E+00   -.241E+01 0.613E+02 0.871E+00   -.266E-01 0.143E+01 0.333E-01   0.271E-04 -.301E-03 -.109E-04
   0.244E+01 0.627E+02 -.909E+00   -.241E+01 -.613E+02 0.872E+00   -.266E-01 -.143E+01 0.333E-01   0.143E-04 0.297E-03 0.569E-05
   -.242E+01 0.628E+02 0.916E+00   0.239E+01 -.613E+02 -.879E+00   0.254E-01 -.143E+01 -.332E-01   -.221E-05 0.312E-03 -.988E-05
   -.605E+00 -.108E+00 0.566E+00   0.608E+00 0.517E-01 -.582E+00   0.110E-01 0.498E-01 0.809E-02   0.676E-05 -.322E-05 -.161E-04
   0.597E+00 -.101E+00 -.586E+00   -.590E+00 0.397E-01 0.607E+00   -.206E-01 0.560E-01 -.143E-01   0.102E-04 0.678E-05 0.141E-04
   0.598E+00 0.101E+00 -.586E+00   -.590E+00 -.395E-01 0.608E+00   -.206E-01 -.560E-01 -.143E-01   0.200E-04 -.148E-04 0.144E-04
   -.606E+00 0.107E+00 0.567E+00   0.608E+00 -.514E-01 -.582E+00   0.110E-01 -.498E-01 0.810E-02   -.563E-05 -.312E-05 -.966E-05
   0.746E+00 -.212E+01 0.284E+00   -.714E+00 0.327E+01 -.219E+00   -.710E-02 -.110E+01 -.660E-01   0.686E-06 0.390E-05 0.128E-05
   -.755E+00 -.207E+01 -.276E+00   0.720E+00 0.322E+01 0.211E+00   0.948E-02 -.112E+01 0.645E-01   -.416E-05 0.786E-05 0.940E-06
   -.756E+00 0.207E+01 -.276E+00   0.721E+00 -.322E+01 0.211E+00   0.959E-02 0.112E+01 0.646E-01   -.408E-05 -.805E-05 0.515E-06
   0.746E+00 0.212E+01 0.284E+00   -.713E+00 -.327E+01 -.219E+00   -.698E-02 0.110E+01 -.661E-01   0.198E-06 -.377E-05 0.221E-05
   0.749E+00 0.483E+02 -.134E+00   -.788E+00 -.530E+02 0.116E+00   0.575E-01 0.473E+01 0.141E-01   -.150E-05 -.203E-03 -.930E-06
   -.750E+00 0.483E+02 0.128E+00   0.790E+00 -.530E+02 -.111E+00   -.584E-01 0.473E+01 -.125E-01   -.602E-05 -.207E-03 0.306E-05
   -.750E+00 -.483E+02 0.128E+00   0.789E+00 0.530E+02 -.111E+00   -.585E-01 -.473E+01 -.124E-01   -.328E-06 0.199E-03 0.315E-05
   0.749E+00 -.483E+02 -.134E+00   -.788E+00 0.530E+02 0.116E+00   0.575E-01 -.473E+01 0.140E-01   0.318E-06 0.203E-03 -.694E-05
   -.267E+02 0.193E+02 0.940E+02   0.433E+02 -.775E+01 -.911E+02   -.167E+02 -.116E+02 -.289E+01   0.552E-03 0.596E-03 0.455E-03
   0.267E+02 0.193E+02 -.939E+02   -.434E+02 -.773E+01 0.910E+02   0.167E+02 -.116E+02 0.289E+01   -.559E-03 0.601E-03 -.467E-03
   0.267E+02 -.193E+02 -.939E+02   -.434E+02 0.773E+01 0.910E+02   0.167E+02 0.116E+02 0.289E+01   -.557E-03 -.599E-03 -.464E-03
   -.267E+02 -.193E+02 0.940E+02   0.433E+02 0.775E+01 -.911E+02   -.167E+02 0.116E+02 -.289E+01   0.553E-03 -.592E-03 0.458E-03
   0.176E+02 0.840E+02 0.285E+02   -.763E+01 -.784E+02 -.455E+02   -.998E+01 -.560E+01 0.171E+02   0.555E-03 0.480E-03 -.822E-03
   -.176E+02 0.840E+02 -.285E+02   0.761E+01 -.784E+02 0.455E+02   0.998E+01 -.559E+01 -.171E+02   -.560E-03 0.474E-03 0.831E-03
   -.176E+02 -.840E+02 -.285E+02   0.761E+01 0.784E+02 0.455E+02   0.998E+01 0.559E+01 -.171E+02   -.557E-03 -.481E-03 0.829E-03
   0.176E+02 -.840E+02 0.285E+02   -.763E+01 0.784E+02 -.455E+02   -.998E+01 0.560E+01 0.171E+02   0.558E-03 -.478E-03 -.828E-03
   -.265E+02 0.212E+02 0.947E+02   0.432E+02 -.979E+01 -.918E+02   -.167E+02 -.114E+02 -.293E+01   0.549E-03 0.604E-03 0.476E-03
   0.265E+02 0.212E+02 -.947E+02   -.432E+02 -.979E+01 0.918E+02   0.167E+02 -.114E+02 0.293E+01   -.549E-03 0.602E-03 -.462E-03
   0.265E+02 -.212E+02 -.947E+02   -.432E+02 0.979E+01 0.918E+02   0.167E+02 0.114E+02 0.293E+01   -.550E-03 -.599E-03 -.462E-03
   -.265E+02 -.212E+02 0.947E+02   0.432E+02 0.979E+01 -.918E+02   -.167E+02 0.114E+02 -.293E+01   0.555E-03 -.610E-03 0.472E-03
   0.206E+02 0.817E+02 0.278E+02   -.106E+02 -.760E+02 -.446E+02   -.100E+02 -.569E+01 0.168E+02   0.580E-03 0.477E-03 -.818E-03
   -.206E+02 0.817E+02 -.278E+02   0.106E+02 -.760E+02 0.446E+02   0.100E+02 -.569E+01 -.168E+02   -.580E-03 0.467E-03 0.819E-03
   -.206E+02 -.817E+02 -.278E+02   0.106E+02 0.760E+02 0.446E+02   0.100E+02 0.569E+01 -.168E+02   -.575E-03 -.464E-03 0.820E-03
   0.206E+02 -.817E+02 0.278E+02   -.106E+02 0.760E+02 -.446E+02   -.100E+02 0.569E+01 0.168E+02   0.570E-03 -.478E-03 -.823E-03
   0.145E-01 -.633E-04 0.110E-01   -.799E-13 0.995E-13 -.135E-12   -.140E-01 0.924E-04 -.113E-01   0.399E-04 -.125E-04 -.298E-05

 POSITION                                       TOTAL-FORCE (eV/Angst)
      4.83834      5.06888      2.80354        -0.003406      0.000881      0.003424
      4.86550      0.70687     -0.50110         0.003336     -0.001291     -0.003372
      1.63333      3.65518      0.92725         0.003350      0.001291     -0.003383
      1.60618      8.01728      4.23189        -0.003412     -0.000887      0.003442
      6.46286      6.54089     -1.21111         0.012095     -0.003334     -0.011339
      3.24099      2.17877      3.51349        -0.011765     -0.002566      0.011051
      0.00882      2.18329      4.94185        -0.011799      0.002577      0.011044
      3.23070      6.54528      0.21725         0.012137      0.003389     -0.011365
      1.61952      4.95966      4.22473         0.025504      0.013154     -0.003407
      1.61996      0.59773      0.93440        -0.025006      0.003915      0.002783
      4.85213      3.76432     -0.49396        -0.025015     -0.003887      0.002903
      4.85169      8.12651      2.79637         0.025596     -0.013180     -0.003485
      1.61506      5.90819      0.93118         0.018547      0.006339     -0.004351
      1.62441      1.54614      4.22789        -0.018874      0.006958      0.004511
      4.85658      2.81591      2.79954        -0.018915     -0.006967      0.004533
      4.84722      7.17798     -0.49718         0.018559     -0.006357     -0.004365
      2.65527      5.97354      4.97749        -0.004958     -0.000903      0.002625
      0.58433      1.61153      0.18166         0.002437      0.001389     -0.004878
      3.81650      2.75053     -1.24669         0.002407     -0.001446     -0.004963
      5.88743      7.11263      3.54913        -0.004986      0.000917      0.002618
      5.69499      4.69317     -1.54463         0.010764     -0.004569     -0.003274
      4.00878      0.33097      3.84704        -0.012543     -0.001185      0.004877
      0.77662      4.03108      5.27539        -0.012516      0.001188      0.004849
      2.46281      8.39300     -0.11627         0.010785      0.004576     -0.003264
      2.65937      1.60332      1.69192        -0.004799      0.002729     -0.026245
      0.58018      5.96543      3.46712         0.007266      0.000008      0.028845
      3.81234      7.12074      2.03876         0.007261     -0.000021      0.028871
      5.89154      2.75874      0.26356        -0.004816     -0.002691     -0.026320
      5.70702      0.32845      1.75116        -0.004723      0.014167     -0.010624
      3.99672      4.69040      0.55129         0.006107      0.011929      0.009455
      0.76456      8.39577      1.97965         0.006093     -0.011941      0.009460
      2.47486      4.03361      3.17952        -0.004712     -0.014185     -0.010659
    total drift:                                0.000538      0.000016     -0.000322

  FREE ENERGIE OF THE ION-ELECTRON SYSTEM (eV)
  free  energy   TOTEN  =      -367.19886492 eV

  energy  without entropy=     -367.19886492  energy(sigma->0) =     -367.19886492

 reached required accuracy - stopping structural energy minimisation

 total charge

[...]

 magnetization (x)

# of ion       s       p       d       tot
    1        0.000   0.000   0.000   0.000
    2        0.000   0.000   0.000   0.000
    3        0.000   0.000   0.000   0.000
    4        0.000   0.000   0.000   0.000
    5        0.000  -0.000   0.000   0.000
    6        0.000  -0.000   0.000   0.000
    7        0.000  -0.000   0.000   0.000
    8        0.000  -0.000   0.000   0.000
    9       -0.000   0.000   0.000   0.000
   10       -0.000   0.000   0.000   0.000
   11       -0.000   0.000   0.000   0.000
   12       -0.000   0.000   0.000   0.000
   13        0.000  -0.000   0.000  -0.000
   14        0.000  -0.000   0.000  -0.000
   15        0.000  -0.000   0.000  -0.000
   16       -0.000  -0.000   0.000  -0.000
   17       -0.000  -0.000   0.000  -0.000
   18       -0.000  -0.000   0.000  -0.000
   19       -0.000  -0.000   0.000  -0.000
   20       -0.000  -0.000   0.000  -0.000
   21        0.000  -0.000   0.000  -0.000
   22       -0.000  -0.000   0.000  -0.000
   23       -0.000  -0.000   0.000  -0.000
   24       -0.000  -0.000   0.000  -0.000
   25       -0.000  -0.000   0.000  -0.000
   26       -0.000  -0.000   0.000  -0.000
   27       -0.000  -0.000   0.000  -0.000
   28       -0.000  -0.000   0.000  -0.000
   29       -0.000  -0.000   0.000  -0.000
   30       -0.000  -0.000   0.000  -0.000
   31       -0.000  -0.000   0.000  -0.000
   32       -0.000  -0.000   0.000  -0.000
tot          0.000  -0.000   0.000  -0.000