 vasp.6.1.2 22Jul20 (build Feb 09 2022 12:23:39) complex

 executed on             LinuxIFC date 2022.02.14  18:47:57

 INCAR:
 POTCAR:    PAW_PBE Ca_sv 06Sep2000
 POTCAR:    PAW_PBE V_pv 07Sep2000
 POTCAR:    PAW_PBE P 06Sep2000
 POTCAR:    PAW_PBE O 08Apr2002
 POTCAR:    PAW_PBE Ca_sv 06Sep2000
   VRHFIN =Ca: 3s3p4s

   TITEL  = PAW_PBE Ca_sv 06Sep2000
   POMASS =   40.078; ZVAL   =   10.000    mass and valenz
   ENMAX  =  266.622; ENMIN  =  199.967 eV

   TITEL  = PAW_PBE V_pv 07Sep2000
   POMASS =   50.941; ZVAL   =   11.000    mass and valenz
   ENMAX  =  263.673; ENMIN  =  197.755 eV

   TITEL  = PAW_PBE P 06Sep2000
   POMASS =   30.974; ZVAL   =    5.000    mass and valenz
   ENMAX  =  255.040; ENMIN  =  191.280 eV

   TITEL  = PAW_PBE O 08Apr2002
   POMASS =   16.000; ZVAL   =    6.000    mass and valenz
   ENMAX  =  400.000; ENMIN  =  300.000 eV

 Optimization of the real space projectors (new method)

 maximal supplied QI-value         = 16.25
 optimisation between [QCUT,QGAM] = [ 11.54, 23.24] = [ 37.28,151.24] Ry
 Optimized for a Real-space Cutoff    1.58 Angstroem

   l    n(q)    QCUT    max X(q) W(low)/X(q) W(high)/X(q)  e(spline)
   0     11    11.539    11.817    0.25E-04    0.22E-05    0.26E-07
   0     11    11.539     8.461    0.39E-04    0.49E-05    0.55E-07
   1     11    11.539     3.957    0.21E-05    0.44E-05    0.32E-07
   1     11    11.539     4.314    0.56E-04    0.44E-04    0.19E-06
   2     10    11.539    14.565    0.25E-03    0.21E-04    0.75E-06
   2     10    11.539    14.552    0.23E-03    0.22E-04    0.72E-06
 Optimization of the real space projectors (new method)

[...]

   l    n(q)    QCUT    max X(q) W(low)/X(q) W(high)/X(q)  e(spline)
   0      8    11.508   160.924    0.96E-04    0.17E-03    0.52E-07
   0      8    11.508   130.086    0.95E-04    0.17E-03    0.51E-07
   1      8    11.508    74.434    0.16E-03    0.74E-04    0.91E-07
   1      8    11.508    49.120    0.16E-03    0.71E-04    0.89E-07
 Optimization of the real space projectors (new method)

 maximal supplied QI-value         = 24.76
 optimisation between [QCUT,QGAM] = [ 11.64, 23.27] = [ 37.91,151.63] Ry
 Optimized for a Real-space Cutoff    1.14 Angstroem

   l    n(q)    QCUT    max X(q) W(low)/X(q) W(high)/X(q)  e(spline)
   0      8    11.635    20.381    0.10E-03    0.33E-03    0.24E-06
   0      8    11.635    15.268    0.11E-03    0.35E-03    0.26E-06
   1      7    11.635     5.964    0.24E-03    0.31E-03    0.30E-06
   1      7    11.635     5.382    0.22E-03    0.25E-03    0.26E-06
  PAW_PBE Ca_sv 06Sep2000               :
  PAW_PBE V_pv 07Sep2000                :
  PAW_PBE P 06Sep2000                   :
  PAW_PBE O 08Apr2002                   :

 POSCAR: Ca5 V4 P6 O24
  positions in direct lattice
  velocities in cartesian coordinates

 METAGGA = SCAN     LMAXTAU =  6    LMIXTAU =  F

 ion  position               nearest neighbor table
   1  0.966  0.005  0.022-  23 2.26  21 2.34  20 2.36  18 2.37  25 2.39  16 2.47
   2  0.411  0.744  0.109-  31 2.28  24 2.46  22 2.46  33 2.55  14 2.82  12 2.96
   3  0.155  0.405  0.740-  26 2.34  27 2.35  24 2.42  18 2.46  35 2.49  16 2.53  10 2.96  12 3.02

   4  0.243  0.884  0.592-  34 2.41  15 2.41  17 2.42  21 2.46  30 2.46  25 2.47  13 2.87  11 2.95

   5  0.646  0.631  0.631-  19 1.94  32 1.97  15 1.99  28 2.05  17 2.08  30 2.12
   6  0.141  0.151  0.150-  29 2.05  27 2.08  31 2.11  20 2.13  18 2.19  16 2.24
   7  0.842  0.857  0.858-  36 2.05  38 2.08  23 2.12  25 2.16  34 2.17  21 2.18
   8  0.356  0.347  0.352-  37 1.95  22 2.00  35 2.06  24 2.08  26 2.08  33 2.10
   9  0.247  0.557  0.952-  27 1.52  33 1.52  17 1.54  25 1.56
  10  0.040  0.749  0.448-  28 1.49  20 1.54  34 1.55  24 1.57   3 2.96
  11  0.962  0.255  0.556-  19 1.51  29 1.51  35 1.55  21 1.56   4 2.95
  12  0.447  0.031  0.741-  36 1.50  26 1.52  30 1.54  16 1.58   2 2.96   3 3.02
  13  0.537  0.949  0.250-  23 1.51  37 1.52  15 1.53  31 1.54   4 2.87
  14  0.746  0.456  0.032-  38 1.52  22 1.53  32 1.53  18 1.54   2 2.82
  15  0.562  0.771  0.414-  13 1.53   5 1.99   4 2.41
  16  0.258  0.061  0.905-  12 1.58   6 2.24   1 2.47   3 2.53
  17  0.399  0.578  0.762-   9 1.54   5 2.08   4 2.42
  18  0.924  0.288  0.029-  14 1.54   6 2.19   1 2.37   3 2.46
  19  0.781  0.410  0.563-  11 1.51   5 1.94
  20  0.070  0.909  0.266-  10 1.54   6 2.13   1 2.36
  21  0.943  0.087  0.737-  11 1.56   7 2.18   1 2.34   4 2.46
  22  0.586  0.413  0.208-  14 1.53   8 2.00   2 2.46
  23  0.713  0.952  0.086-  13 1.51   7 2.12   1 2.26
  24  0.229  0.588  0.417-  10 1.57   8 2.08   3 2.42   2 2.46
  25  0.088  0.746  0.924-   9 1.56   7 2.16   1 2.39   4 2.47
  26  0.431  0.217  0.587-  12 1.52   8 2.08   3 2.34
  27  0.188  0.403  0.989-   9 1.52   6 2.08   3 2.35
  28  0.878  0.707  0.488-  10 1.49   5 2.05
  29  0.043  0.178  0.402-  11 1.51   6 2.05
  30  0.459  0.876  0.697-  12 1.54   5 2.12   4 2.46
  31  0.383  0.954  0.210-  13 1.54   6 2.11   2 2.28
  32  0.700  0.508  0.863-  14 1.53   5 1.97
  33  0.297  0.531  0.107-   9 1.52   8 2.10   2 2.55
  34  0.029  0.773  0.616-  10 1.55   7 2.17   4 2.41
  35  0.111  0.308  0.547-  11 1.55   8 2.06   3 2.49
  36  0.597  0.965  0.814-  12 1.50   7 2.05
  37  0.458  0.111  0.316-  13 1.52   8 1.95
  38  0.765  0.622  0.024-  14 1.52   7 2.08

IMPORTANT INFORMATION: All symmetrisations will be switched off!
NOSYMM: (Re-)initialisation of all symmetry stuff for point group C_1.

                                     Primitive cell

  volume of cell :     492.6435

  direct lattice vectors                    reciprocal lattice vectors
     2.575295045  7.277754574  4.336218049    -0.000276154  0.137783618 -0.000471420
     0.023810072  0.030247511  8.826601394    -0.063596928 -0.045192730  0.113620313
     7.701847764  0.030227384  4.322993822     0.130127919 -0.045931501 -0.000193624

  length of vectors
     8.854413768  8.826685335  8.832193853     0.137784701  0.137827891  0.137996433

  position of ions in fractional coordinates (direct lattice)
     0.966440383  0.004501906  0.022171725
     0.411393869  0.744034072  0.109192546
     0.154820606  0.404629518  0.740246690
     0.242611640  0.884265451  0.592315462
     0.645880949  0.631443655  0.631166991
     0.141118202  0.151024242  0.149796763
     0.841580116  0.857410053  0.858248652
     0.355737471  0.347476973  0.352188908
     0.246513485  0.557088085  0.951980384
     0.040430786  0.748819868  0.448215582
     0.962489184  0.255279960  0.556295401
     0.446899534  0.031063251  0.740612886
     0.536629155  0.949115063  0.249546711
     0.745519147  0.456298412  0.031507802
     0.562052679  0.771132462  0.413577178
     0.258150804  0.061444841  0.905263129
     0.398865688  0.578246042  0.761787209
     0.923667988  0.288481495  0.028513536
     0.780644337  0.409998264  0.562849417
     0.069821749  0.908975767  0.265900983
     0.943279501  0.086815035  0.737080082
     0.586052294  0.413469182  0.208370263
     0.712554634  0.951646194  0.086362096
     0.229208908  0.588486605  0.416651690
     0.088377949  0.746180731  0.923616393
     0.431011052  0.216649255  0.586892201
     0.188240041  0.402517537  0.989261557
     0.878093344  0.706516677  0.487683668
     0.042614974  0.178079163  0.402484372
     0.458649956  0.876359575  0.696782795
     0.383316156  0.953521703  0.209917378
     0.700236364  0.507885005  0.862714880
     0.297164860  0.531256839  0.106757512
     0.028897143  0.773327728  0.615973492
     0.111011514  0.308401483  0.546793885
     0.597045287  0.965237814  0.813935704
     0.458332094  0.111056714  0.315663380
     0.764759955  0.622071081  0.023678124

  ion indices of the primitive-cell ions
   primitive index   ion index
                 1           1
                 2           2
                 3           3
                 4           4
                 5           5
                 6           6
                 7           7
                 8           8
                 9           9
                10          10
                11          11
                12          12
                13          13
                14          14
                15          15
                16          16
                17          17
                18          18
                19          19
                20          20
                21          21
                22          22
                23          23
                24          24
                25          25
                26          26
                27          27
                28          28
                29          29
                30          30
                31          31
                32          32
                33          33
                34          34
                35          35
                36          36
                37          37
                38          38

 KPOINTS: Fully automatic kpoint scheme

Automatic generation of k-mesh.
 generate k-points for:    4    4    4
Space group operators:
 irot       det(A)        alpha          n_x          n_y          n_z        tau_x        tau_y        tau_z
    1     1.000000     0.000001     1.000000     0.000000     0.000000     0.000000     0.000000     0.000000

 Subroutine IBZKPT returns following result:

 Found     36 irreducible k-points:

 Following reciprocal coordinates:
            Coordinates               Weight
  0.000000  0.000000  0.000000      1.000000
  0.250000 -0.000000  0.000000      2.000000
  0.500000 -0.000000  0.000000      1.000000
 -0.000000  0.250000  0.000000      2.000000
  0.250000  0.250000 -0.000000      2.000000
  0.500000  0.250000 -0.000000      2.000000
 -0.250000  0.250000  0.000000      2.000000
 -0.000000  0.500000 -0.000000      1.000000
  0.250000  0.500000  0.000000      2.000000
  0.500000  0.500000  0.000000      1.000000
  0.000000 -0.000000  0.250000      2.000000
  0.250000 -0.000000  0.250000      2.000000
  0.500000  0.000000  0.250000      2.000000
 -0.250000 -0.000000  0.250000      2.000000
 -0.000000  0.250000  0.250000      2.000000
  0.250000  0.250000  0.250000      2.000000
  0.500000  0.250000  0.250000      2.000000
 -0.250000  0.250000  0.250000      2.000000
 -0.000000  0.500000  0.250000      2.000000
  0.250000  0.500000  0.250000      2.000000
  0.500000  0.500000  0.250000      2.000000
 -0.250000  0.500000  0.250000      2.000000
  0.000000 -0.250000  0.250000      2.000000
  0.250000 -0.250000  0.250000      2.000000
  0.500000 -0.250000  0.250000      2.000000
 -0.250000 -0.250000  0.250000      2.000000
  0.000000 -0.000000  0.500000      1.000000
  0.250000 -0.000000  0.500000      2.000000
  0.500000 -0.000000  0.500000      1.000000
  0.000000  0.250000  0.500000      2.000000
  0.250000  0.250000  0.500000      2.000000
  0.500000  0.250000  0.500000      2.000000
 -0.250000  0.250000  0.500000      2.000000
 -0.000000  0.500000  0.500000      1.000000
  0.250000  0.500000  0.500000      2.000000
  0.500000  0.500000  0.500000      1.000000

 Following cartesian coordinates:
            Coordinates               Weight
  0.000000  0.000000  0.000000      1.000000
[...]
      6     -35.6375      1.00000
      7     -35.2130      1.00000
      8     -35.0967      1.00000
      9     -34.4018      1.00000
     10     -34.2658      1.00000
     11     -32.9185      1.00000
     12     -32.7703      1.00000
     13     -32.7573      1.00000
     14     -32.6722      1.00000
     15     -32.6441      1.00000
     16     -32.5403      1.00000
     17     -20.8079      1.00000
     18     -20.6916      1.00000
     19     -20.6389      1.00000
     20     -20.6262      1.00000
     21     -20.4076      1.00000
     22     -20.2808      1.00000
     23     -19.4726      1.00000
     24     -19.3262      1.00000
     25     -19.2282      1.00000
     26     -19.2257      1.00000
     27     -19.0528      1.00000
     28     -19.0412      1.00000
     29     -18.9755      1.00000
     30     -18.9138      1.00000
     31     -18.8989      1.00000
     32     -18.8220      1.00000
     33     -18.7872      1.00000
     34     -18.7285      1.00000
     35     -18.1065      1.00000
     36     -17.9757      1.00000
     37     -17.9428      1.00000
     38     -17.9062      1.00000
     39     -17.8642      1.00000
     40     -17.8423      1.00000
     41     -17.7528      1.00000
     42     -17.7194      1.00000
     43     -17.6679      1.00000
     44     -17.6230      1.00000
     45     -17.6000      1.00000
     46     -17.5979      1.00000
     47     -17.5514      1.00000
     48     -17.5306      1.00000
     49     -17.4596      1.00000
     50     -17.4218      1.00000
     51     -17.3630      1.00000
     52     -17.2538      1.00000
     53      -7.2937      1.00000
     54      -6.9702      1.00000
     55      -6.7447      1.00000
     56      -6.5817      1.00000
     57      -6.5037      1.00000
     58      -6.3686      1.00000
     59      -5.2191      1.00000
     60      -5.1423      1.00000
[...]
    156       9.1552      0.00000
    157       9.2011      0.00000
    158       9.3453      0.00000
    159       9.4178      0.00000
    160       9.4653      0.00000
    161       9.6830      0.00000
    162       9.7452      0.00000
    163       9.8642      0.00000
    164       9.9657      0.00000
    165      10.1713      0.00000
    166      10.2718      0.00000
    167      10.3475      0.00000
    168      10.4141      0.00000
    169      10.7838      0.00000
    170      10.9256      0.00000

 soft charge-density along one line, spin component           1
         0         1         2         3         4         5         6         7         8         9
 total charge-density along one line

 soft charge-density along one line, spin component           2
         0         1         2         3         4         5         6         7         8         9
 total charge-density along one line

------------------------ aborting loop because EDIFF is reached ----------------------------------------

 total charge

# of ion       s       p       d       tot
    1        2.023   5.873   0.217   8.113
    2        2.018   5.864   0.217   8.099
    3        2.019   5.865   0.220   8.105
    4        2.019   5.867   0.228   8.115
    5        0.230   6.223   2.772   9.225
    6        0.163   6.133   3.038   9.334
    7        0.165   6.137   2.999   9.301
    8        0.218   6.206   2.829   9.252
    9        0.901   1.518   0.000   2.419
   10        0.901   1.524   0.000   2.425
   11        0.901   1.527   0.000   2.428
   12        0.903   1.531   0.000   2.434
   13        0.903   1.545   0.000   2.448
   14        0.902   1.542   0.000   2.443
   15        1.574   3.660   0.000   5.234
   16        1.568   3.625   0.000   5.193
   17        1.573   3.640   0.000   5.213
   18        1.572   3.651   0.000   5.222
   19        1.578   3.644   0.000   5.222
   20        1.571   3.657   0.000   5.228
   21        1.570   3.645   0.000   5.215
   22        1.573   3.655   0.000   5.228
   23        1.574   3.670   0.000   5.244
   24        1.571   3.647   0.000   5.218
   25        1.569   3.645   0.000   5.214
   26        1.575   3.647   0.000   5.221
   27        1.569   3.661   0.000   5.230
   28        1.573   3.649   0.000   5.222
   29        1.570   3.656   0.000   5.226
   30        1.572   3.636   0.000   5.209
   31        1.572   3.658   0.000   5.230
   32        1.571   3.649   0.000   5.220
   33        1.570   3.641   0.000   5.211
   34        1.569   3.632   0.000   5.201
   35        1.571   3.635   0.000   5.206
   36        1.573   3.660   0.000   5.233
   37        1.571   3.666   0.000   5.237
   38        1.574   3.636   0.000   5.210
tot         51.986 144.923  12.521 209.430

 magnetization (x)

[...]

  FORCE on cell =-STRESS in cart. coord.  units (eV):
  Direction    XX          YY          ZZ          XY          YZ          ZX
  Alpha Z   882.30356   882.30356   882.30356
  Ewald   -4198.05763 -4681.69151 -4296.31039  -183.61119  -197.87792   -96.61873
  Hartree  2578.04733  2187.64879  2515.40697  -146.09418  -126.70475   -50.24825
  E(xc)   -1331.78471 -1331.83440 -1331.61836    -0.00162     0.02807     0.13433
  Local   -2218.34289 -1346.38045 -2055.78879   330.78206   313.49079   143.72634
  n-local  -730.82665  -730.25893  -729.80663     1.03529    -1.78529    -2.07753
  augment   393.56238   393.40231   391.49483    -0.60389     3.79540     1.18545
  Kinetic  4625.40264  4627.11729  4624.61674    -1.50226     9.05873     3.85967
  Fock        0.00000     0.00000     0.00000     0.00000     0.00000     0.00000
  Total       0.30403     0.30666     0.29794     0.00421     0.00503    -0.03872
  in kB       0.98875     0.99733     0.96896     0.01370     0.01636    -0.12594

 VOLUME and BASIS-vectors are now :
  energy-cutoff  :      520.00
  volume of cell :      492.64
      direct lattice vectors                 reciprocal lattice vectors
     2.575295045  7.277754574  4.336218049    -0.000276154  0.137783618 -0.000471420
     0.023810072  0.030247511  8.826601394    -0.063596928 -0.045192730  0.113620313
     7.701847764  0.030227384  4.322993822     0.130127919 -0.045931501 -0.000193624

  length of vectors
     8.854413768  8.826685335  8.832193853     0.137784701  0.137827891  0.137996433

 FORCES acting on ions
    electron-ion (+dipol)            ewald-force                    non-local-force                 convergence-correction
   -.919E+02 0.153E+03 -.117E+02   0.905E+02 -.154E+03 0.111E+02   0.136E+01 0.269E+00 0.684E+00   0.150E-02 0.137E-02 0.179E-02
   -.430E+02 -.626E+02 0.208E+02   0.452E+02 0.624E+02 -.194E+02   -.219E+01 0.235E+00 -.142E+01   0.190E-02 -.200E-02 -.703E-02
   -.132E+02 -.313E+02 -.102E+03   0.139E+02 0.331E+02 0.100E+03   -.748E+00 -.185E+01 0.153E+01   -.602E-02 0.220E-02 -.247E-02
   0.619E+02 -.812E+01 0.367E+02   -.600E+02 0.814E+01 -.378E+02   -.190E+01 -.242E-01 0.115E+01   -.524E-03 0.444E-02 0.270E-02
   0.416E+02 -.881E+02 0.924E+02   -.417E+02 0.891E+02 -.940E+02   0.121E+00 -.100E+01 0.147E+01   0.778E-03 -.608E-03 0.226E-02
   -.367E+02 0.114E+03 -.147E+03   0.394E+02 -.114E+03 0.150E+03   -.269E+01 -.580E-01 -.235E+01   -.133E-02 0.976E-03 -.529E-03
   0.610E+02 0.983E+02 -.141E+02   -.605E+02 -.101E+03 0.129E+02   -.469E+00 0.217E+01 0.118E+01   -.107E-02 0.208E-02 -.157E-03
   0.486E+02 -.102E+03 0.375E+02   -.487E+02 0.103E+03 -.389E+02   0.108E+00 -.102E+01 0.131E+01   -.295E-03 -.181E-02 0.696E-03
   -.603E+02 -.857E+01 0.504E+02   0.603E+02 0.977E+01 -.512E+02   -.277E-01 -.116E+01 0.774E+00   0.168E-02 0.213E-02 0.111E-02
   0.301E+02 0.693E+02 -.211E+02   -.299E+02 -.728E+02 0.190E+02   -.195E+00 0.340E+01 0.204E+01   -.218E-03 0.150E-02 -.298E-02
   0.695E+02 0.110E+03 -.173E+01   -.716E+02 -.110E+03 0.111E+01   0.198E+01 0.645E-01 0.615E+00   -.224E-03 0.235E-02 0.304E-02
   0.489E+02 -.856E+02 -.602E+02   -.480E+02 0.888E+02 0.607E+02   -.923E+00 -.306E+01 -.492E+00   -.293E-02 -.148E-02 -.864E-03
   0.335E+02 -.823E+02 -.213E+02   -.331E+02 0.820E+02 0.218E+02   -.321E+00 0.263E+00 -.446E+00   0.225E-02 -.119E-02 0.267E-02
   -.785E+02 -.194E+02 0.344E+02   0.770E+02 0.178E+02 -.315E+02   0.149E+01 0.158E+01 -.276E+01   -.268E-03 -.263E-02 -.205E-02
   0.436E+02 -.116E+03 0.162E+03   -.218E+02 0.121E+03 -.184E+03   -.219E+02 -.485E+01 0.226E+02   0.218E-02 -.175E-02 0.137E-02
   0.133E+02 0.283E+02 0.454E+01   -.785E+00 -.534E+02 -.376E+01   -.125E+02 0.252E+02 -.773E+00   -.325E-02 -.293E-03 -.276E-02
   0.299E+02 -.892E+02 0.205E+03   -.532E+02 0.112E+03 -.212E+03   0.233E+02 -.228E+02 0.740E+01   -.826E-03 0.587E-03 0.129E-02
   -.642E+02 0.763E+02 0.380E+02   0.730E+02 -.512E+02 -.537E+02   -.886E+01 -.251E+02 0.157E+02   -.343E-02 -.184E-02 -.236E-02
   0.128E+03 0.108E+03 0.171E+03   -.142E+03 -.141E+03 -.167E+03   0.143E+02 0.326E+02 -.324E+01   0.554E-03 0.436E-04 0.271E-02
   0.249E+02 0.144E+03 0.728E+01   -.521E+02 -.142E+03 0.720E+01   0.271E+02 -.206E+01 -.145E+02   -.230E-03 0.334E-03 -.504E-02
   0.746E+00 0.139E+03 -.483E+02   0.251E+02 -.144E+03 0.361E+02   -.259E+02 0.497E+01 0.123E+02   -.451E-03 0.428E-02 0.612E-02
   -.183E+03 -.111E+03 0.602E+00   0.209E+03 0.931E+02 -.482E+01   -.263E+02 0.182E+02 0.422E+01   0.122E-02 -.886E-02 -.391E-02
   -.905E+01 -.133E+02 -.806E+02   -.925E+01 0.408E+02 0.845E+02   0.183E+02 -.276E+02 -.388E+01   0.495E-02 -.187E-02 0.550E-02
   -.439E+02 -.887E+02 -.575E+02   0.498E+02 0.115E+03 0.491E+02   -.592E+01 -.267E+02 0.841E+01   -.456E-03 0.386E-02 -.725E-02
   -.113E+03 0.558E+02 -.101E+02   0.105E+03 -.773E+02 0.273E+02   0.826E+01 0.215E+02 -.173E+02   0.280E-02 0.618E-02 0.296E-02
   -.153E+01 -.224E+03 -.159E+03   -.234E+02 0.229E+03 0.183E+03   0.250E+02 -.572E+01 -.243E+02   -.778E-02 -.389E-02 -.374E-03
   -.385E+02 -.154E+02 0.704E+00   0.416E+02 0.533E+01 -.298E+02   -.314E+01 0.101E+02 0.292E+02   -.192E-02 0.219E-02 0.204E-02
   0.117E+03 0.515E+02 0.965E+01   -.124E+03 -.781E+02 -.318E+02   0.722E+01 0.266E+02 0.222E+02   0.958E-04 0.537E-03 -.170E-02
   0.939E+02 0.141E+03 0.110E+02   -.115E+03 -.130E+03 -.339E+02   0.206E+02 -.105E+02 0.229E+02   0.350E-02 0.160E-02 0.346E-02
   0.243E+02 -.257E+02 -.115E+02   -.311E+02 0.242E+02 -.190E+02   0.681E+01 0.145E+01 0.306E+02   -.144E-02 -.974E-03 -.127E-02
   0.152E+02 -.398E+02 0.151E+02   -.285E+02 0.182E+02 -.319E+02   0.133E+02 0.216E+02 0.169E+02   0.326E-02 0.144E-02 -.118E-02
   -.156E+02 -.772E+01 0.109E+03   -.959E+01 0.112E+01 -.122E+03   0.252E+02 0.661E+01 0.131E+02   -.793E-03 -.135E-02 -.672E-03
   -.332E+01 0.277E+02 0.240E+02   0.299E+02 -.204E+02 -.765E+01   -.267E+02 -.734E+01 -.164E+02   0.729E-02 0.212E-02 0.115E-02
   0.924E+00 0.328E+02 -.249E+02   0.242E+02 -.338E+02 0.428E+02   -.251E+02 0.961E+00 -.179E+02   -.249E-02 0.502E-02 -.371E-02
   -.531E+01 0.716E+02 -.252E+02   0.149E+02 -.545E+02 0.466E+02   -.957E+01 -.171E+02 -.214E+02   -.237E-02 0.715E-02 0.337E-02
   0.646E+02 -.706E+02 -.138E+03   -.428E+02 0.945E+02 0.150E+03   -.218E+02 -.239E+02 -.118E+02   -.346E-02 -.607E-02 -.236E-02
   0.371E+02 -.103E+03 -.492E+02   -.287E+02 0.941E+02 0.755E+02   -.840E+01 0.917E+01 -.263E+02   0.167E-02 -.343E-02 0.819E-02
   -.170E+03 -.299E+02 -.624E+02   0.176E+03 0.338E+02 0.969E+02   -.688E+01 -.389E+01 -.345E+02   0.231E-02 -.333E-02 -.596E-02
   0.180E+02 -.112E+01 -.163E+02   -.284E-13 0.426E-13 -.284E-13   -.179E+02 0.111E+01 0.164E+02   -.383E-02 0.900E-02 -.221E-02

 POSITION                                       TOTAL-FORCE (eV/Angst)
      2.65974      7.03432      4.32628         0.019804      0.001951      0.003784
      1.91816      3.01983      8.82322        -0.015414      0.003849     -0.006918
      6.10961      1.16136      7.44292         0.005822     -0.001440     -0.004116
      5.20777      1.81032     11.41765        -0.003701     -0.001000     -0.001741
      6.53952      4.73874     11.10271        -0.007278     -0.023754     -0.016783
      1.52073      1.03612      2.59252        -0.005598      0.001621     -0.009014
      8.79783      6.17669     14.92750         0.004940     -0.001919     -0.003593
      3.63691      2.61013      6.13211        -0.001349      0.014091     -0.002750
      7.98012      1.83969     10.10154         0.002255      0.003354      0.000128
      3.57404      0.33044      8.72248         0.002852      0.009173      0.019548
      6.76927      7.02930      8.83168        -0.000588     -0.005385     -0.004708
      6.85573      3.27575      5.41370        -0.011304      0.002883     -0.003574
      3.32655      3.94171     11.78319         0.003940      0.016127      0.005683
      2.17346      5.44046      7.39651         0.009499      0.000024      0.011315
      4.65112      4.12631     11.03155        -0.019258     -0.001205      0.001103
      7.63848      1.90798      5.57519         0.000813      0.001669      0.001293
      6.90813      2.94336     10.12672        -0.002630      0.000279      0.002628
      2.60519      6.73182      6.67480        -0.001289     -0.011311      0.001325
      6.35513      5.71075      9.43713         0.013275      0.005932      0.006763
      2.24938      0.54368      9.47542        -0.001357      0.003287      0.002869
      8.10817      6.88986      8.04294        -0.005221      0.010315      0.024419
      3.12394      4.28395      7.09156        -0.001310      0.001970     -0.012725
      2.52284      5.21719     11.86294        -0.002218     -0.019403      0.005356
      3.81328      1.69852      7.98942         0.005836     -0.013953     -0.001767
      7.35892      0.69368     10.96225         0.009828      0.005981     -0.013097
      5.63529      3.16109      6.31837         0.007881      0.010466     -0.001745
      8.11350      1.41204      8.64568        -0.007850      0.003872      0.005940
      6.03424      6.42666     12.15200        -0.005576      0.005526      0.007509
      3.21386      0.32769      3.49656         0.001503      0.003929     -0.002469
      6.56854      3.38551     12.73627        -0.001538      0.004142     -0.001292
      2.62661      2.82487     10.98597         0.003297      0.006561     -0.005316
      8.45991      5.13759     11.24879         0.009048      0.009337      0.023235
      1.60017      2.18199      6.43928        -0.007003     -0.004108     -0.010147
      4.83697      0.25232      9.61401         0.001549     -0.009765     -0.008393
      4.50455      0.83377      5.56729        -0.000580      0.000223     -0.009260
      7.82936      4.39895     14.62733        -0.008002     -0.023463     -0.012287
      3.61418      3.34853      4.33229        -0.001817     -0.008810     -0.003204
      2.16666      5.58527      8.90930         0.008740     -0.001045      0.012002
    total drift:                                0.013793      0.006607      0.069447

  FREE ENERGIE OF THE ION-ELECTRON SYSTEM (eV)
  free  energy   TOTEN  =      -424.22582908 eV

  energy  without entropy=     -424.21676271  energy(sigma->0) =     -424.22129589

 reached required accuracy - stopping structural energy minimisation

 total charge

[...]

 magnetization (x)

# of ion       s       p       d       tot
    1        0.000   0.000   0.006   0.006
    2        0.000   0.000   0.003   0.004
    3        0.000   0.000   0.005   0.005
    4        0.000   0.000   0.003   0.004
    5        0.006   0.011   1.864   1.880
    6        0.014   0.013   2.588   2.615
    7        0.013   0.013   2.533   2.559
    8        0.006   0.011   2.031   2.048
    9        0.003   0.006   0.000   0.008
   10        0.002   0.005   0.000   0.007
   11        0.003   0.007   0.000   0.010
   12        0.002   0.005   0.000   0.006
   13        0.003   0.006   0.000   0.008
   14        0.003   0.006   0.000   0.008
   15       -0.001  -0.004   0.000  -0.005
   16       -0.000  -0.001   0.000  -0.002
   17       -0.000   0.009   0.000   0.009
   18        0.000  -0.005   0.000  -0.005
   19       -0.000  -0.011   0.000  -0.011
   20       -0.000   0.002   0.000   0.002
   21       -0.000  -0.006   0.000  -0.007
   22       -0.000  -0.007   0.000  -0.007
   23       -0.000   0.001   0.000   0.001
   24       -0.000   0.000   0.000   0.000
   25       -0.000  -0.000   0.000  -0.001
   26        0.000   0.004   0.000   0.005
   27       -0.000   0.006   0.000   0.005
   28       -0.000   0.011   0.000   0.010
   29       -0.001   0.004   0.000   0.003
   30       -0.000  -0.006   0.000  -0.006
   31        0.000  -0.002   0.000  -0.002
   32       -0.001  -0.000   0.000  -0.001
   33        0.000   0.005   0.000   0.006
   34        0.000   0.002   0.000   0.002
   35        0.000  -0.006   0.000  -0.006
   36       -0.001   0.004   0.000   0.003
   37       -0.001  -0.001   0.000  -0.002
   38       -0.001  -0.002   0.000  -0.002
tot          0.047   0.078   9.034   9.158