 vasp.6.1.2 22Jul20 (build Apr 14 2021 21:39:43) complex

 executed on             LinuxIFC date 2022.04.20  06:55:33

 INCAR:
 POTCAR:    PAW_PBE Ca_sv 06Sep2000
 POTCAR:    PAW_PBE Fe_pv 02Aug2007
 POTCAR:    PAW_PBE S 06Sep2000
 POTCAR:    PAW_PBE O 08Apr2002
 POTCAR:    PAW_PBE Ca_sv 06Sep2000
   VRHFIN =Ca: 3s3p4s

   TITEL  = PAW_PBE Ca_sv 06Sep2000
   POMASS =   40.078; ZVAL   =   10.000    mass and valenz
   ENMAX  =  266.622; ENMIN  =  199.967 eV

 POTCAR:    PAW_PBE Fe_pv 02Aug2007
   VRHFIN =Fe:  3pd7s1

   TITEL  = PAW_PBE Fe_pv 02Aug2007
   POMASS =   55.847; ZVAL   =   14.000    mass and valenz
   ENMAX  =  293.238; ENMIN  =  219.928 eV

 POTCAR:    PAW_PBE S 06Sep2000
   VRHFIN =S : s2p4

   TITEL  = PAW_PBE S 06Sep2000
   POMASS =   32.066; ZVAL   =    6.000    mass and valenz
   ENMAX  =  258.689; ENMIN  =  194.016 eV

 POTCAR:    PAW_PBE O 08Apr2002
   VRHFIN =O: s2p4

   TITEL  = PAW_PBE O 08Apr2002
   POMASS =   16.000; ZVAL   =    6.000    mass and valenz
   ENMAX  =  400.000; ENMIN  =  300.000 eV

 Optimization of the real space projectors (new method)

 maximal supplied QI-value         = 16.25
 optimisation between [QCUT,QGAM] = [ 11.54, 23.24] = [ 37.28,151.24] Ry
 Optimized for a Real-space Cutoff    1.58 Angstroem

   l    n(q)    QCUT    max X(q) W(low)/X(q) W(high)/X(q)  e(spline)
   0     11    11.539    11.817    0.25E-04    0.22E-05    0.26E-07
   0     11    11.539     8.461    0.39E-04    0.49E-05    0.55E-07
   1     11    11.539     3.957    0.21E-05    0.44E-05    0.32E-07
   1     11    11.539     4.314    0.56E-04    0.44E-04    0.19E-06
   2     10    11.539    14.565    0.25E-03    0.21E-04    0.75E-06
   2     10    11.539    14.552    0.23E-03    0.22E-04    0.72E-06
 Optimization of the real space projectors (new method)

[...]

   l    n(q)    QCUT    max X(q) W(low)/X(q) W(high)/X(q)  e(spline)
   0      8    11.508   187.594    0.96E-04    0.18E-03    0.54E-07
   0      8    11.508   164.243    0.96E-04    0.18E-03    0.54E-07
   1      8    11.508    67.533    0.18E-03    0.65E-04    0.94E-07
   1      8    11.508    50.729    0.18E-03    0.63E-04    0.92E-07
 Optimization of the real space projectors (new method)

 maximal supplied QI-value         = 24.76
 optimisation between [QCUT,QGAM] = [ 11.64, 23.27] = [ 37.91,151.63] Ry
 Optimized for a Real-space Cutoff    1.14 Angstroem

   l    n(q)    QCUT    max X(q) W(low)/X(q) W(high)/X(q)  e(spline)
   0      8    11.635    20.381    0.10E-03    0.33E-03    0.24E-06
   0      8    11.635    15.268    0.11E-03    0.35E-03    0.26E-06
   1      7    11.635     5.964    0.24E-03    0.31E-03    0.30E-06
   1      7    11.635     5.382    0.22E-03    0.25E-03    0.26E-06
  PAW_PBE Ca_sv 06Sep2000               :
  PAW_PBE Fe_pv 02Aug2007               :
  PAW_PBE S 06Sep2000                   :
  PAW_PBE O 08Apr2002                   :

 POSCAR: Ca2 Fe4 S6 O24
  positions in direct lattice
  velocities in cartesian coordinates

 METAGGA = SCAN     LMAXTAU =  6    LMIXTAU =  F

 ion  position               nearest neighbor table
   1  0.498  0.497  0.497-  22 2.36  17 2.36  13 2.36  24 2.37  20 2.38  15 2.39
   2  0.997  0.997  0.998-  21 2.36  18 2.36  14 2.37  19 2.37  23 2.38  16 2.39
   3  0.646  0.648  0.648-  26 2.01  28 2.05  30 2.06  15 2.13  13 2.16  17 2.17
   4  0.148  0.147  0.146-  29 2.01  27 2.05  25 2.06  16 2.13  18 2.17  14 2.17
   5  0.848  0.847  0.847-  36 2.02  34 2.03  32 2.05  19 2.16  23 2.17  21 2.18
   6  0.347  0.347  0.348-  31 2.02  33 2.03  35 2.05  24 2.16  20 2.17  22 2.18
   7  0.949  0.249  0.547-  25 1.45  31 1.46  23 1.48  15 1.49
   8  0.449  0.046  0.747-  32 1.45  26 1.46  22 1.48  18 1.48
   9  0.547  0.948  0.247-  27 1.45  33 1.46  17 1.48  19 1.48
  10  0.747  0.448  0.047-  28 1.45  34 1.46  14 1.48  24 1.48
  11  0.247  0.546  0.949-  35 1.45  29 1.46  21 1.48  13 1.48
  12  0.047  0.749  0.449-  30 1.45  36 1.46  20 1.48  16 1.49
  13  0.404  0.564  0.768-  11 1.48   3 2.16   1 2.36
  14  0.904  0.269  0.065-  10 1.48   4 2.17   2 2.37
  15  0.768  0.406  0.568-   7 1.49   3 2.13   1 2.39
  16  0.068  0.906  0.268-  12 1.49   4 2.13   2 2.39
  17  0.565  0.769  0.404-   9 1.48   3 2.17   1 2.36
  18  0.268  0.063  0.904-   8 1.48   4 2.17   2 2.36
  19  0.727  0.929  0.089-   9 1.48   5 2.16   2 2.37
  20  0.227  0.591  0.430-  12 1.48   6 2.17   1 2.38
  21  0.090  0.726  0.930-  11 1.48   5 2.18   2 2.36
  22  0.430  0.226  0.590-   8 1.48   6 2.18   1 2.36
  23  0.930  0.091  0.727-   7 1.48   5 2.17   2 2.38
  24  0.589  0.428  0.227-  10 1.48   6 2.16   1 2.37
  25  0.982  0.195  0.398-   7 1.45   4 2.06
  26  0.484  0.896  0.692-   8 1.46   3 2.01
  27  0.397  0.982  0.194-   9 1.45   4 2.05
  28  0.694  0.482  0.897-  10 1.45   3 2.05
  29  0.192  0.396  0.984-  11 1.46   4 2.01
  30  0.898  0.695  0.482-  12 1.45   3 2.06
  31  0.098  0.304  0.514-   7 1.46   6 2.02
  32  0.597  0.013  0.802-   8 1.45   5 2.05
  33  0.515  0.098  0.300-   9 1.46   6 2.03
  34  0.800  0.599  0.016-  10 1.46   5 2.03
  35  0.302  0.514  0.097-  11 1.45   6 2.05
  36  0.014  0.804  0.598-  12 1.46   5 2.02

IMPORTANT INFORMATION: All symmetrisations will be switched off!
NOSYMM: (Re-)initialisation of all symmetry stuff for point group C_1.

                                     Primitive cell

  volume of cell :     473.3090

  direct lattice vectors                    reciprocal lattice vectors
     7.602745272  0.000077558  4.363095698     0.132002138 -0.046299366 -0.000819382
     2.525623841  7.123936044  4.337445268    -0.000016223  0.140361898  0.000025773
     0.053870467 -0.001603941  8.769147054    -0.065669739 -0.046390314  0.114431112

  length of vectors
     8.765748099  8.714509281  8.769312667     0.139888767  0.140361901  0.139853692

  position of ions in fractional coordinates (direct lattice)
     0.498102143  0.496824266  0.497401689
     0.997180979  0.996886013  0.998243487
     0.646084059  0.647776649  0.647913177
     0.148056086  0.147489959  0.145987046
     0.847761109  0.846597740  0.846527301
     0.346689045  0.346650893  0.347530280
     0.948544564  0.248603219  0.547341364
     0.449016460  0.045837372  0.747007725
     0.546857275  0.948488810  0.246631289
     0.746832098  0.448389719  0.047042424
     0.247061109  0.546008607  0.948958619
     0.047325042  0.748534121  0.448593038
     0.403856207  0.563662479  0.768302859
     0.904314180  0.268508680  0.065437299
     0.768178749  0.406110722  0.567661672
     0.067563530  0.905899383  0.268125842
     0.565025466  0.768536442  0.403975139
     0.268403268  0.063352012  0.903804877
     0.727069177  0.928623369  0.089084541
     0.226921864  0.590848220  0.430031533
     0.090404394  0.726264901  0.929966951
     0.430003978  0.226055856  0.590371726
     0.929872327  0.090914848  0.726995134
     0.589248000  0.428483863  0.227287909
     0.981525578  0.195050542  0.398126950
     0.484007659  0.895513569  0.691733157
     0.396931296  0.982447974  0.193990822
     0.694280378  0.482029748  0.897288927
     0.191654824  0.395732599  0.984072329
     0.898006493  0.694858825  0.481779600
     0.097778972  0.303616034  0.513864616
     0.596813437  0.013390470  0.801675594
     0.515436670  0.098418475  0.299878100
     0.799891284  0.598551947  0.015588979
     0.301814294  0.513680888  0.096637726
     0.013888009  0.803760786  0.597540279

  ion indices of the primitive-cell ions
   primitive index   ion index
                 1           1
                 2           2
                 3           3
                 4           4
                 5           5
                 6           6
                 7           7
                 8           8
                 9           9
                10          10
                11          11
                12          12
                13          13
                14          14
                15          15
                16          16
                17          17
                18          18
                19          19
                20          20
                21          21
                22          22
                23          23
                24          24
                25          25
                26          26
                27          27
                28          28
                29          29
                30          30
                31          31
                32          32
                33          33
                34          34
                35          35
                36          36

 KPOINTS: Fully automatic kpoint scheme

Automatic generation of k-mesh.
 generate k-points for:    4    4    4
Space group operators:
 irot       det(A)        alpha          n_x          n_y          n_z        tau_x        tau_y        tau_z
    1     1.000000     0.000000     1.000000     0.000000     0.000000     0.000000     0.000000     0.000000

 Subroutine IBZKPT returns following result:

 Found     36 irreducible k-points:

 Following reciprocal coordinates:
            Coordinates               Weight
  0.000000  0.000000  0.000000      1.000000
  0.250000  0.000000 -0.000000      2.000000
  0.500000  0.000000 -0.000000      1.000000
 -0.000000  0.250000  0.000000      2.000000
  0.250000  0.250000 -0.000000      2.000000
  0.500000  0.250000 -0.000000      2.000000
 -0.250000  0.250000  0.000000      2.000000
 -0.000000  0.500000  0.000000      1.000000
  0.250000  0.500000  0.000000      2.000000
  0.500000  0.500000 -0.000000      1.000000
  0.000000 -0.000000  0.250000      2.000000
  0.250000 -0.000000  0.250000      2.000000
  0.500000  0.000000  0.250000      2.000000
 -0.250000 -0.000000  0.250000      2.000000
  0.000000  0.250000  0.250000      2.000000
  0.250000  0.250000  0.250000      2.000000
  0.500000  0.250000  0.250000      2.000000
 -0.250000  0.250000  0.250000      2.000000
 -0.000000  0.500000  0.250000      2.000000
  0.250000  0.500000  0.250000      2.000000
  0.500000  0.500000  0.250000      2.000000
 -0.250000  0.500000  0.250000      2.000000
  0.000000 -0.250000  0.250000      2.000000
  0.250000 -0.250000  0.250000      2.000000
  0.500000 -0.250000  0.250000      2.000000
 -0.250000 -0.250000  0.250000      2.000000
  0.000000 -0.000000  0.500000      1.000000
  0.250000 -0.000000  0.500000      2.000000
  0.500000 -0.000000  0.500000      1.000000
 -0.000000  0.250000  0.500000      2.000000
  0.250000  0.250000  0.500000      2.000000
  0.500000  0.250000  0.500000      2.000000
 -0.250000  0.250000  0.500000      2.000000
  0.000000  0.500000  0.500000      1.000000
  0.250000  0.500000  0.500000      2.000000
  0.500000  0.500000  0.500000      1.000000

 Following cartesian coordinates:
            Coordinates               Weight
  0.000000  0.000000  0.000000      1.000000
  0.033001 -0.011575 -0.000205      2.000000
  0.066001 -0.023150 -0.000410      1.000000
 -0.000004  0.035090  0.000006      2.000000
  0.032996  0.023516 -0.000198      2.000000
  0.065997  0.011941 -0.000403      2.000000
 -0.033005  0.046665  0.000211      2.000000
 -0.000008  0.070181  0.000013      1.000000
[...]
 number of electron     256.0000013 magnetization      16.0000007
 augmentation part       51.0831014 magnetization      11.1093454

[...]

 d Force =-0.1981659E-03[-0.108E-02, 0.681E-03]  d Energy = 0.1081513E-04-0.209E-03
 d Force =-0.6520893E+00[-0.661E+00,-0.643E+00]  d Ewald  = 0.8351155E+00-0.149E+01

 Steepest descent step on ions:
 trial-energy change:   -0.000011  1 .order    0.000220   -0.000730    0.001170
  (g-gl).g = 0.730E-03      g.g   = 0.730E-03  gl.gl    = 0.000E+00
 g(Force)  = 0.681E-03   g(Stress)= 0.487E-04 ortho     = 0.000E+00
 gamma     =   0.00000
 trial     =   1.00000
 opt step  =   0.56354  (harmonic =   0.38412) maximal distance =0.00073848
 next E    =  -363.705343   (d E  =  -0.00025)

[...]

 d Force = 0.2772955E-03[ 0.842E-04, 0.470E-03]  d Energy = 0.2882170E-03-0.109E-04
 d Force = 0.2868196E+00[ 0.285E+00, 0.289E+00]  d Ewald  =-0.3623191E+00 0.649E+00

[...]

 d Force = 0.3689228E-04[ 0.472E-04, 0.266E-04]  d Energy = 0.3847004E-04-0.158E-05
 d Force = 0.8998874E-01[ 0.898E-01, 0.902E-01]  d Ewald  =-0.1152768E+00 0.205E+00

 real space projection operators:
  max/ min on nodes  :       1239.17        935.84

[...]

 eigenvalue-minimisations  :     0
 total energy-change (2. order) :-0.3509973E-05  (-0.3680291E-05)
 number of electron     256.0000014 magnetization      16.0000007
 augmentation part       51.0791009 magnetization      11.1086726

[...]

--------------------------------------- Iteration      5(   6)  ---------------------------------------

 eigenvalue-minimisations  :     0
 total energy-change (2. order) : 0.9131254E-06  (-0.2809642E-05)
 number of electron     256.0000014 magnetization      16.0000007
 augmentation part       51.0790164 magnetization      11.1087013

 Free energy of the ion-electron system (eV)
  alpha Z        PSCENC =       713.34611699
  Ewald energy   TEWEN  =    -13828.78999425
  -Hartree energ DENC   =     -8973.69965388
  -exchange      EXHF   =         0.00000000
  -V(xc)+E(xc)   XCENC  =      1388.88051722
  PAW double counting   =     47244.94536193   -47760.37395005
  entropy T*S    EENTRO =        -0.00000000
  eigenvalues    EBANDS =     -3027.38229627
  atomic energy  EATOM  =     23879.36850190
  free energy    TOTEN  =      -363.70539640 eV

  energy without entropy =     -363.70539640  energy(sigma->0) =     -363.70539640

  average scaling for gradient   0.8382

 average (electrostatic) potential at core
  the test charge radii are     1.1137  0.9500  0.9698  0.7215
  (the norm of the test charge is              1.0000)
       1 -50.0613       2 -50.0622       3 -85.6307       4 -85.6299       5 -85.6365
       6 -85.6391       7 -96.5917       8 -96.5534       9 -96.5693      10 -96.5727
      11 -96.5511      12 -96.5905      13 -77.0813      14 -77.0922      15 -77.1470
      16 -77.1450      17 -77.0837      18 -77.0815      19 -77.1026      20 -77.1088
      21 -77.0662      22 -77.0681      23 -77.1116      24 -77.1076      25 -76.9650
      26 -77.0480      27 -76.9838      28 -76.9780      29 -77.0426      30 -76.9715
      31 -77.0551      32 -76.9500      33 -77.0136      34 -77.0195      35 -76.9478
      36 -77.0514

 E-fermi :   4.2473     XC(G=0): -10.0372     alpha+bet : -9.3423

[...]

 spin component 2

[...]

 k-point    36 :       0.5000    0.5000    0.5000
  band No.  band energies     occupation
      1     -49.2431      1.00000
      2     -49.2429      1.00000
      3     -49.2361      1.00000
      4     -49.2323      1.00000
      5     -48.7994      1.00000
      6     -48.7933      1.00000
      7     -48.7915      1.00000
      8     -48.7829      1.00000
      9     -48.5834      1.00000
     10     -48.5807      1.00000
     11     -48.5769      1.00000
     12     -48.5722      1.00000
     13     -38.9809      1.00000
     14     -38.9800      1.00000
     15     -23.6351      1.00000
     16     -23.6335      1.00000
     17     -23.5905      1.00000
     18     -23.5891      1.00000
     19     -23.5763      1.00000
     20     -23.5735      1.00000
     21     -19.8152      1.00000
     22     -19.8144      1.00000
     23     -19.5793      1.00000
     24     -19.5789      1.00000
     25     -19.5740      1.00000
     26     -19.5730      1.00000
     27     -19.4691      1.00000
     28     -19.4682      1.00000
     29     -19.3450      1.00000
     30     -19.3446      1.00000
     31     -19.3326      1.00000
     32     -19.3313      1.00000
     33     -19.3220      1.00000
     34     -19.3210      1.00000
     35     -19.2083      1.00000
     36     -19.2079      1.00000
     37     -19.1928      1.00000
     38     -19.1923      1.00000
     39     -18.7270      1.00000
     40     -18.7266      1.00000
     41     -18.7020      1.00000
     42     -18.7011      1.00000
     43     -18.5590      1.00000
     44     -18.5583      1.00000
     45      -8.9478      1.00000
     46      -8.9459      1.00000
     47      -8.2751      1.00000
     48      -8.2742      1.00000
     49      -8.2526      1.00000
     50      -8.2495      1.00000
     51      -6.6841      1.00000
     52      -6.6826      1.00000
     53      -6.2629      1.00000
     54      -6.2610      1.00000
     55      -5.9385      1.00000
     56      -5.9357      1.00000
     57      -5.9071      1.00000
     58      -5.9038      1.00000
     59      -5.7483      1.00000
     60      -5.7476      1.00000
[...]
    162      10.9482      0.00000
    163      11.1756      0.00000
    164      11.1785      0.00000
    165      11.1882      0.00000
    166      11.1928      0.00000
    167      11.5588      0.00000
    168      11.5638      0.00000
    169      11.8156      0.00000
    170      11.8366      0.00000
    171      11.8999      0.00000
    172      11.9155      0.00000
    173      11.9647      0.00000
    174      12.0978      0.00000
    175      12.5415      0.00000
    176      12.7770      0.00000

[...]

 soft charge-density along one line, spin component           2
         0         1         2         3         4         5         6         7         8         9
 total charge-density along one line

------------------------ aborting loop because EDIFF is reached ----------------------------------------

[...]

  FORCE on cell =-STRESS in cart. coord.  units (eV):
  Direction    XX          YY          ZZ          XY          YZ          ZX
  Alpha Z   713.34612   713.34612   713.34612
  Ewald   -4764.84346 -4868.72540 -4195.28224   231.67015   400.35471   511.38767
  Hartree  2897.12706  2827.13969  3249.42141   140.84534   243.08437   315.56611
  E(xc)   -1397.55665 -1397.53393 -1397.79637    -0.11914    -0.20087    -0.21956
  Local   -2329.32128 -2143.08038 -3268.65697  -376.00062  -648.60083  -841.41597
  n-local  -396.78746  -395.32589  -398.59438    -0.50076    -0.71686    -1.48913
  augment   738.45046   728.44602   759.46520     6.18903    10.05890    18.04228
  Kinetic  4539.63497  4535.84292  4538.12245    -2.05547    -3.93727    -1.87957
  Fock        0.00000     0.00000     0.00000     0.00000     0.00000     0.00000
  Total       0.04974     0.10914     0.02523     0.02852     0.04216    -0.00817
  in kB       0.16840     0.36947     0.08540     0.09654     0.14271    -0.02767

 VOLUME and BASIS-vectors are now :
  energy-cutoff  :      520.00
  volume of cell :      473.28
      direct lattice vectors                 reciprocal lattice vectors
     7.602509158  0.000208303  4.362900779     0.132005930 -0.046300942 -0.000817494
     2.525587962  7.123975075  4.337440278    -0.000017306  0.140362924  0.000023454
     0.053792617 -0.001458621  8.768844609    -0.065670420 -0.046392587  0.114435249

  length of vectors
     8.765446294  8.714528306  8.769009725     0.139892856  0.140362928  0.139858151

 FORCES acting on ions:
    Electron-Ion                     Ewald-Force                    Non-Local-Force
   -.278E+01 0.268E+01 0.123E+01   0.258E+01 -.263E+01 -.120E+01   0.202E+00 -.533E-01 -.262E-01
   0.303E+01 0.192E+01 -.176E+01   -.290E+01 -.191E+01 0.159E+01   -.133E+00 -.161E-01 0.165E+00
   -.268E+02 -.154E+02 -.401E+02   0.278E+02 0.163E+02 0.421E+02   -.954E+00 -.891E+00 -.197E+01
   -.218E+02 -.162E+02 -.436E+02   0.231E+02 0.170E+02 0.454E+02   -.129E+01 -.844E+00 -.178E+01
   0.234E+02 0.139E+02 0.430E+02   -.245E+02 -.148E+02 -.448E+02   0.110E+01 0.938E+00 0.182E+01
   0.255E+02 0.137E+02 0.419E+02   -.266E+02 -.147E+02 -.438E+02   0.106E+01 0.928E+00 0.187E+01
   0.615E+01 -.226E+00 -.343E+01   -.403E+01 -.175E+00 0.159E+01   -.218E+01 0.409E+00 0.187E+01
   0.346E+01 -.605E+01 0.306E+00   -.174E+01 0.443E+01 0.218E+00   -.175E+01 0.164E+01 -.537E+00
   -.426E+01 0.643E+01 0.244E+00   0.261E+01 -.447E+01 -.344E+00   0.169E+01 -.200E+01 0.988E-01
   0.222E+01 0.640E+01 -.342E+01   -.153E+01 -.442E+01 0.185E+01   -.712E+00 -.203E+01 0.161E+01
   -.151E+01 -.569E+01 0.315E+01   0.109E+01 0.404E+01 -.141E+01   0.426E+00 0.168E+01 -.178E+01
   -.608E+01 -.815E-01 0.356E+01   0.349E+01 -.311E+00 -.258E+01   0.265E+01 0.401E+00 -.102E+01
   0.752E+01 0.218E+02 0.984E+02   0.254E+02 -.186E+02 -.122E+03   -.329E+02 -.326E+01 0.233E+02
   0.233E+02 0.695E+02 0.638E+02   -.353E+01 -.105E+03 -.627E+02   -.198E+02 0.352E+02 -.115E+01
   0.726E+02 0.659E+01 0.697E+02   -.995E+02 0.225E+02 -.690E+02   0.269E+02 -.292E+02 -.747E+00
   0.252E+02 0.665E+01 0.977E+02   -.113E+02 0.225E+02 -.121E+03   -.139E+02 -.291E+02 0.231E+02
   0.441E+02 0.702E+02 0.509E+02   -.529E+02 -.105E+03 -.330E+02   0.877E+01 0.353E+02 -.178E+02
   0.820E+02 0.216E+02 0.547E+02   -.118E+03 -.184E+02 -.375E+02   0.365E+02 -.320E+01 -.172E+02
   -.793E+02 -.191E+02 -.548E+02   0.115E+03 0.155E+02 0.374E+02   -.360E+02 0.366E+01 0.174E+02
   -.748E+02 0.174E+01 -.669E+02   0.102E+03 -.320E+02 0.660E+02   -.269E+02 0.302E+02 0.853E+00
   -.224E+02 -.708E+02 -.647E+02   0.263E+01 0.106E+03 0.634E+02   0.198E+02 -.356E+02 0.132E+01
   -.451E+02 -.710E+02 -.512E+02   0.537E+02 0.107E+03 0.333E+02   -.853E+01 -.356E+02 0.179E+02
   -.213E+02 0.110E+01 -.981E+02   0.734E+01 -.313E+02 0.121E+03   0.140E+02 0.302E+02 -.231E+02
   -.890E+01 -.190E+02 -.963E+02   -.239E+02 0.154E+02 0.119E+03   0.328E+02 0.367E+01 -.228E+02
   0.916E+02 0.398E+01 0.662E+02   -.941E+02 -.169E+02 -.110E+03   0.248E+01 0.129E+02 0.434E+02
   0.928E+02 -.596E+01 0.592E+02   -.101E+03 -.220E+02 -.910E+02   0.814E+01 0.279E+02 0.318E+02
   0.365E+02 0.842E+02 0.603E+02   -.671E+02 -.818E+02 -.926E+02   0.306E+02 -.237E+01 0.323E+02
   0.343E+02 0.840E+02 0.630E+02   -.473E+02 -.817E+02 -.106E+03   0.131E+02 -.235E+01 0.427E+02
   0.606E+01 -.538E+01 0.110E+03   -.298E+02 -.226E+02 -.132E+03   0.237E+02 0.280E+02 0.227E+02
   0.116E+02 0.422E+01 0.112E+03   -.480E+02 -.171E+02 -.136E+03   0.364E+02 0.129E+02 0.235E+02
   -.943E+00 -.550E+01 -.113E+03   0.356E+02 0.184E+02 0.137E+03   -.347E+02 -.129E+02 -.234E+02
   -.367E+02 -.864E+02 -.648E+02   0.672E+02 0.846E+02 0.979E+02   -.305E+02 0.175E+01 -.332E+02
   -.982E+02 -.830E+00 -.609E+02   0.107E+03 0.294E+02 0.933E+02   -.900E+01 -.286E+02 -.324E+02
   -.421E+01 -.721E+00 -.116E+03   0.278E+02 0.293E+02 0.139E+03   -.236E+02 -.286E+02 -.238E+02
   -.383E+02 -.863E+02 -.641E+02   0.521E+02 0.846E+02 0.107E+03   -.138E+02 0.171E+01 -.428E+02
   -.982E+02 -.586E+01 -.569E+02   0.102E+03 0.188E+02 0.986E+02   -.331E+01 -.129E+02 -.417E+02
   -.383E+00 0.724E-01 -.651E+00   0.284E-13 0.355E-13 -.114E-12   0.269E+00 -.664E-01 0.449E+00

 POSITION                                       TOTAL-FORCE (eV/Angst)
      5.06838      3.53873      8.68980         0.005936     -0.002664      0.002976
     10.15253      7.10049     17.42800        -0.000254     -0.005827      0.004358
      6.58248      4.61379     11.30987        -0.011592     -0.003234     -0.001003
      1.50592      1.05071      2.56566         0.001541      0.003827     -0.007242
      8.62894      6.03017     14.79382         0.010271      0.001209     -0.000649
      3.52979      2.46910      6.06372        -0.007504     -0.003119      0.010077
      7.86859      1.77053     10.01650        -0.007539     -0.001137     -0.002560
      3.56941      0.32548      8.70807        -0.000832     -0.002988      0.001946
      6.56619      6.75667      8.66256         0.007239     -0.003324      0.002557
      6.81280      3.19438      5.61580        -0.003450     -0.002397      0.009896
      3.30833      3.88845     11.76730         0.002301      0.001012      0.002140
      2.27464      5.33197      7.38688         0.003950      0.000292     -0.008785
      4.53510      4.01442     10.94385         0.001519     -0.001486     -0.007703
      7.55654      1.91304      5.68386        -0.002871     -0.001934     -0.001050
      6.89643      2.89235     10.09069        -0.002951      0.004475      0.000979
      2.81598      6.45315      6.57532         0.006156      0.006994     -0.002899
      6.25846      5.47465      9.34093         0.002327     -0.005448      0.001908
      2.24907      0.45000      9.37097        -0.008318     -0.001195     -0.001756
      7.87756      6.61550      7.98117         0.001294     -0.001568     -0.002269
      3.24062      4.20874      7.32391         0.006767     -0.001735      0.004861
      2.57171      5.17251     11.69932         0.002003      0.004375      0.000289
      3.87178      1.60964      8.03360        -0.000128      0.003773      0.003107
      7.33825      0.64693     10.82629         0.001932     -0.002543      0.006489
      5.57420      3.05227      6.42228        -0.005892     -0.002178     -0.000789
      7.97612      1.38930      8.61944         0.001437      0.007067      0.008262
      5.97848      6.37885     12.06161        -0.003620     -0.002935     -0.010059
      5.50965      6.99867      7.69426        -0.001965      0.002902     -0.004860
      6.54393      3.43277     12.98831        -0.001338      0.002756      0.000671
      2.50953      2.81793     11.18172        -0.002330      0.000491     -0.005972
      8.60794      4.94977     11.15649         0.005387      0.006295      0.004119
      1.53747      2.16222      6.24951         0.002747      0.005702      0.004784
      4.61438      0.09423      9.69166        -0.002696     -0.003806     -0.007741
      4.18341      0.70067      5.30515         0.001661     -0.000721     -0.003211
      7.59358      4.26405      6.22269        -0.000313      0.001934      0.000251
      3.59698      3.65923      4.39231        -0.004888     -0.006545     -0.002514
      2.16787      5.72509      8.78632         0.004013      0.003681      0.001394
    total drift:                               -0.114189      0.005997     -0.201998

  FREE ENERGIE OF THE ION-ELECTRON SYSTEM (eV)
  free  energy   TOTEN  =      -363.70539640 eV

  energy  without entropy=     -363.70539640  energy(sigma->0) =     -363.70539640

 d Force = 0.2894860E-04[-0.148E-04, 0.727E-04]  d Energy =-0.3672548E-04 0.657E-04
 d Force = 0.1380485E+00[ 0.138E+00, 0.138E+00]  d Ewald  =-0.1783574E+00 0.316E+00

 reached required accuracy - stopping structural energy minimisation

 total charge

[...]

 magnetization (x)

# of ion       s       p       d       tot
    1        0.000   0.000  -0.002  -0.002
    2        0.000   0.000  -0.002  -0.002
    3        0.009   0.013   3.645   3.667
    4        0.009   0.013   3.645   3.667
    5        0.009   0.013   3.645   3.666
    6        0.009   0.013   3.645   3.667
    7        0.004   0.010   0.000   0.014
    8        0.003   0.009   0.000   0.013
    9        0.004   0.010   0.000   0.014
   10        0.004   0.010   0.000   0.014
   11        0.003   0.009   0.000   0.013
   12        0.004   0.010   0.000   0.014
   13        0.005   0.026   0.000   0.032
   14        0.005   0.026   0.000   0.031
   15        0.005   0.028   0.000   0.034
   16        0.005   0.028   0.000   0.034
   17        0.005   0.026   0.000   0.031
   18        0.005   0.026   0.000   0.032
   19        0.005   0.027   0.000   0.032
   20        0.005   0.027   0.000   0.032
   21        0.005   0.026   0.000   0.031
   22        0.005   0.026   0.000   0.031
   23        0.005   0.027   0.000   0.032
   24        0.005   0.027   0.000   0.032
   25        0.007   0.024   0.000   0.031
   26        0.007   0.031   0.000   0.038
   27        0.007   0.025   0.000   0.032
   28        0.007   0.025   0.000   0.032
   29        0.007   0.030   0.000   0.037
   30        0.007   0.025   0.000   0.031
   31        0.007   0.029   0.000   0.036
   32        0.006   0.025   0.000   0.032
   33        0.007   0.028   0.000   0.035
   34        0.007   0.028   0.000   0.035
   35        0.006   0.025   0.000   0.032
   36        0.007   0.029   0.000   0.036
tot          0.203   0.756  14.575  15.534