 vasp.6.1.2 22Jul20 (build Mar 19 2021 09:51:12) complex

 executed on             LinuxIFC date 2021.07.25  12:18:07

 INCAR:
 POTCAR:    PAW_PBE Fe_pv 02Aug2007
 POTCAR:    PAW_PBE Si 05Jan2001
 POTCAR:    PAW_PBE O 08Apr2002
 POTCAR:    PAW_PBE Fe_pv 02Aug2007
   VRHFIN =Fe:  3pd7s1

   TITEL  = PAW_PBE Fe_pv 02Aug2007
   POMASS =   55.847; ZVAL   =   14.000    mass and valenz
   ENMAX  =  293.238; ENMIN  =  219.928 eV

 POTCAR:    PAW_PBE Si 05Jan2001
   VRHFIN =Si: s2p2

   TITEL  = PAW_PBE Si 05Jan2001
   POMASS =   28.085; ZVAL   =    4.000    mass and valenz
   ENMAX  =  245.345; ENMIN  =  184.009 eV

 POTCAR:    PAW_PBE O 08Apr2002
   VRHFIN =O: s2p4

   TITEL  = PAW_PBE O 08Apr2002
   POMASS =   16.000; ZVAL   =    6.000    mass and valenz
   ENMAX  =  400.000; ENMIN  =  300.000 eV

 Optimization of the real space projectors (new method)

 maximal supplied QI-value         = 17.01
 optimisation between [QCUT,QGAM] = [ 11.57, 23.30] = [ 37.45,152.03] Ry
 Optimized for a Real-space Cutoff    1.45 Angstroem

   l    n(q)    QCUT    max X(q) W(low)/X(q) W(high)/X(q)  e(spline)
   1     10    11.565     4.267    0.91E-04    0.15E-03    0.13E-06
   1     10    11.565     5.750    0.14E-03    0.22E-03    0.20E-06
   2      9    11.565    53.656    0.13E-03    0.57E-04    0.16E-06
   2      9    11.565    49.521    0.13E-03    0.59E-04    0.16E-06
   0     10    11.565    31.246    0.61E-04    0.74E-05    0.89E-07
   0     10    11.565    12.201    0.44E-04    0.68E-05    0.74E-07
 Optimization of the real space projectors (new method)

[...]

   l    n(q)    QCUT    max X(q) W(low)/X(q) W(high)/X(q)  e(spline)
   0      8    11.508   159.560    0.71E-04    0.15E-03    0.51E-07
   0      8    11.508   115.863    0.70E-04    0.15E-03    0.51E-07
   1      8    11.508    88.339    0.16E-03    0.38E-04    0.82E-07
   1      8    11.508    48.592    0.15E-03    0.36E-04    0.79E-07
 Optimization of the real space projectors (new method)

 maximal supplied QI-value         = 24.76
 optimisation between [QCUT,QGAM] = [ 11.64, 23.27] = [ 37.91,151.63] Ry
 Optimized for a Real-space Cutoff    1.14 Angstroem

   l    n(q)    QCUT    max X(q) W(low)/X(q) W(high)/X(q)  e(spline)
   0      8    11.635    20.381    0.10E-03    0.33E-03    0.24E-06
   0      8    11.635    15.268    0.11E-03    0.35E-03    0.26E-06
   1      7    11.635     5.964    0.24E-03    0.31E-03    0.30E-06
   1      7    11.635     5.382    0.22E-03    0.25E-03    0.26E-06
  PAW_PBE Fe_pv 02Aug2007               :
  PAW_PBE Si 05Jan2001                  :
  PAW_PBE O 08Apr2002                   :

 POSCAR: Fe8 Si4 O16
  positions in direct lattice
  velocities in cartesian coordinates

 METAGGA = SCAN     LMAXTAU =  6    LMIXTAU =  F

 ion  position               nearest neighbor table
   1  0.500  0.500  1.000-  15 2.11  13 2.12  20 2.13  18 2.13  21 2.24  25 2.24  11 2.77   9 2.77

   2  1.000  1.000  0.500-  14 2.11  16 2.12  17 2.13  19 2.13  26 2.24  22 2.24  10 2.77  12 2.77

[...]

   5  0.514  0.779  0.250-  26 2.06  24 2.06  17 2.11  13 2.23  21 2.29  27 2.29   9 2.87
   6  0.986  0.279  0.250-  23 2.06  25 2.06  18 2.11  14 2.23  28 2.29  22 2.29  10 2.87
   7  0.486  0.221  0.750-  28 2.06  22 2.06  19 2.11  15 2.23  25 2.29  23 2.29  11 2.87
   8  0.014  0.721  0.750-  27 2.06  21 2.06  20 2.11  16 2.23  24 2.29  26 2.29  12 2.87
   9  0.069  0.597  0.250-  13 1.63  21 1.64  27 1.64  18 1.65   1 2.77   3 2.77   5 2.87
  10  0.431  0.097  0.250-  14 1.63  22 1.64  28 1.64  17 1.65   2 2.77   4 2.77   6 2.87
  11  0.931  0.403  0.750-  15 1.63  25 1.64  23 1.64  20 1.65   3 2.77   1 2.77   7 2.87
  12  0.569  0.903  0.750-  16 1.63  26 1.64  24 1.64  19 1.65   4 2.77   2 2.77   8 2.87
  13  0.732  0.591  0.250-   9 1.63   1 2.12   3 2.12   5 2.23
  14  0.768  0.091  0.250-  10 1.63   2 2.11   4 2.11   6 2.23
  15  0.268  0.409  0.750-  11 1.63   3 2.11   1 2.11   7 2.23
  16  0.232  0.909  0.750-  12 1.63   4 2.12   2 2.12   8 2.23
  17  0.291  0.953  0.250-  10 1.65   5 2.11   2 2.13   4 2.13
  18  0.209  0.453  0.250-   9 1.65   6 2.11   1 2.13   3 2.13
  19  0.709  0.047  0.750-  12 1.65   7 2.11   4 2.13   2 2.13
  20  0.791  0.547  0.750-  11 1.65   8 2.11   3 2.13   1 2.13
  21  0.210  0.666  0.036-   9 1.64   8 2.06   1 2.24   5 2.29
  22  0.291  0.166  0.464-  10 1.64   7 2.06   2 2.24   6 2.29
  23  0.791  0.334  0.536-  11 1.64   6 2.06   3 2.24   7 2.29
  24  0.710  0.834  0.964-  12 1.64   5 2.06   4 2.24   8 2.29
  25  0.791  0.334  0.964-  11 1.64   6 2.06   1 2.24   7 2.29
  26  0.710  0.834  0.536-  12 1.64   5 2.06   2 2.24   8 2.29
  27  0.210  0.666  0.464-   9 1.64   8 2.06   3 2.24   5 2.29
  28  0.291  0.166  0.036-  10 1.64   7 2.06   4 2.24   6 2.29

IMPORTANT INFORMATION: All symmetrisations will be switched off!
NOSYMM: (Re-)initialisation of all symmetry stuff for point group C_1.

                                     Primitive cell

  volume of cell :     307.2196

  direct lattice vectors                    reciprocal lattice vectors
     4.825176688  0.000000226  0.000000160     0.207246297 -0.000000005 -0.000000006
     0.000000277 10.457384758 -0.000000923    -0.000000004  0.095626203  0.000000007
     0.000000166 -0.000000418  6.088533043    -0.000000005  0.000000014  0.164243175

  length of vectors
     4.825176688 10.457384758  6.088533043     0.207246297  0.095626203  0.164243175

  position of ions in fractional coordinates (direct lattice)
     0.499924186  0.500016526  0.999852334
     0.999923866  0.999983439  0.499851811
     0.499923970  0.500016548  0.500148072
     0.999924010  0.999983459  0.000147859
     0.513879143  0.779136335  0.249999915
     0.986154547  0.279188105  0.249999943
     0.486154541  0.220811903  0.750000027
     0.013879210  0.720863703  0.750000096
     0.068839036  0.597191400  0.250000075
     0.431157932  0.097203108  0.249999995
     0.931157924  0.402796900  0.749999979
     0.568839110  0.902808577  0.749999936
     0.732041788  0.590936678  0.250000001
     0.767924663  0.090936258  0.249999967
     0.267924719  0.409063746  0.750000046
     0.232041732  0.909063342  0.749999988
     0.290875877  0.953069541  0.249999989
     0.209101253  0.453066869  0.250000021
     0.709101197  0.046933121  0.749999956
     0.790875866  0.546930455  0.750000014
     0.209572043  0.666289682  0.036367228
     0.290516869  0.166273441  0.463659790
     0.790516933  0.333726573  0.536340166
     0.709572051  0.833710337  0.963632802
     0.790516895  0.333726567  0.963659738
     0.709571902  0.833710345  0.536366986
     0.209571864  0.666289633  0.463633076
     0.290516872  0.166273410  0.036340192

  ion indices of the primitive-cell ions
   primitive index   ion index
                 1           1
                 2           2
                 3           3
                 4           4
                 5           5
                 6           6
                 7           7
                 8           8
                 9           9
                10          10
                11          11
                12          12
                13          13
                14          14
                15          15
                16          16
                17          17
                18          18
                19          19
                20          20
                21          21
                22          22
                23          23
                24          24
                25          25
                26          26
                27          27
                28          28

 KPOINTS: K-points file

Automatic generation of k-mesh.
Space group operators:
 irot       det(A)        alpha          n_x          n_y          n_z        tau_x        tau_y        tau_z
    1     1.000000     0.000001     1.000000     0.000000     0.000000     0.000000     0.000000     0.000000

 Subroutine IBZKPT returns following result:

 Found     86 irreducible k-points:

 Following reciprocal coordinates:
            Coordinates               Weight
  0.000000  0.000000  0.000000      1.000000
  0.142857  0.000000 -0.000000      2.000000
  0.285714  0.000000 -0.000000      2.000000
  0.428571  0.000000 -0.000000      2.000000
 -0.000000  0.250000  0.000000      2.000000
  0.142857  0.250000  0.000000      2.000000
  0.142857 -0.250000 -0.000000      2.000000
  0.285714  0.250000  0.000000      2.000000
  0.285714 -0.250000 -0.000000      2.000000
  0.428571  0.250000  0.000000      2.000000
  0.428571 -0.250000 -0.000000      2.000000
 -0.000000  0.500000  0.000000      1.000000
  0.142857  0.500000  0.000000      2.000000
  0.285714  0.500000  0.000000      2.000000
  0.428571  0.500000  0.000000      2.000000
 -0.000000 -0.000000  0.166667      2.000000
  0.142857  0.000000  0.166667      2.000000
  0.142857  0.000000 -0.166667      2.000000
  0.285714  0.000000  0.166667      2.000000
  0.285714  0.000000 -0.166667      2.000000
  0.428571  0.000000  0.166667      2.000000
  0.428571  0.000000 -0.166667      2.000000
 -0.000000  0.250000  0.166667      2.000000
 -0.000000 -0.250000  0.166667      2.000000
  0.142857  0.250000  0.166667      2.000000
  0.142857 -0.250000 -0.166667      2.000000
 -0.142857 -0.250000  0.166667      2.000000
 -0.142857  0.250000 -0.166667      2.000000
  0.285714  0.250000  0.166667      2.000000
  0.285714 -0.250000 -0.166667      2.000000
 -0.285714 -0.250000  0.166667      2.000000
 -0.285714  0.250000 -0.166667      2.000000
  0.428571  0.250000  0.166667      2.000000
  0.428571 -0.250000 -0.166667      2.000000
 -0.428571 -0.250000  0.166667      2.000000
 -0.428571  0.250000 -0.166667      2.000000
  0.000000  0.500000  0.166667      2.000000
  0.142857  0.500000  0.166667      2.000000
  0.142857  0.500000 -0.166667      2.000000
  0.285714  0.500000  0.166667      2.000000
  0.285714  0.500000 -0.166667      2.000000
  0.428571  0.500000  0.166667      2.000000
  0.428571  0.500000 -0.166667      2.000000
 -0.000000 -0.000000  0.333333      2.000000
  0.142857  0.000000  0.333333      2.000000
  0.142857  0.000000 -0.333333      2.000000
  0.285714  0.000000  0.333333      2.000000
  0.285714 -0.000000 -0.333333      2.000000
  0.428571  0.000000  0.333333      2.000000
  0.428571  0.000000 -0.333333      2.000000
 -0.000000  0.250000  0.333333      2.000000
  0.000000 -0.250000  0.333333      2.000000
  0.142857  0.250000  0.333333      2.000000
  0.142857 -0.250000 -0.333333      2.000000
 -0.142857 -0.250000  0.333333      2.000000
 -0.142857  0.250000 -0.333333      2.000000
  0.285714  0.250000  0.333333      2.000000
  0.285714 -0.250000 -0.333333      2.000000
 -0.285714 -0.250000  0.333333      2.000000
 -0.285714  0.250000 -0.333333      2.000000
[...]
 -0.000000  0.000000  0.500000      1.000000
  0.142857  0.000000  0.500000      2.000000
  0.285714  0.000000  0.500000      2.000000
  0.428571  0.000000  0.500000      2.000000
 -0.000000  0.250000  0.500000      2.000000
  0.142857  0.250000  0.500000      2.000000
  0.142857 -0.250000  0.500000      2.000000
  0.285714  0.250000  0.500000      2.000000
  0.285714 -0.250000  0.500000      2.000000
[...]

 E-fermi :   5.9664     XC(G=0): -11.7559     alpha+bet :-12.2173

[...]

 k-point     1 :       0.0000    0.0000    0.0000
  band No.  band energies     occupation
      1     -53.0301      1.00000
      2     -53.0301      1.00000
      3     -53.0250      1.00000
      4     -53.0250      1.00000
      5     -52.6496      1.00000
      6     -52.6490      1.00000
      7     -52.6484      1.00000
      8     -52.6478      1.00000
      9     -51.4620      1.00000
     10     -51.4620      1.00000
     11     -51.4502      1.00000
     12     -51.4502      1.00000
     13     -51.2828      1.00000
     14     -51.2827      1.00000
     15     -51.2672      1.00000
     16     -51.2672      1.00000
     17     -51.1392      1.00000
     18     -51.1390      1.00000
     19     -51.1382      1.00000
     20     -51.1379      1.00000
     21     -50.8812      1.00000
     22     -50.8805      1.00000
     23     -50.8796      1.00000
     24     -50.8789      1.00000
     25     -16.5373      1.00000
     26     -16.3392      1.00000
     27     -16.0896      1.00000
     28     -15.9626      1.00000
     29     -14.9847      1.00000
     30     -14.9803      1.00000
     31     -14.9569      1.00000
     32     -14.9448      1.00000
     33     -14.7551      1.00000
     34     -14.6051      1.00000
     35     -14.5812      1.00000
     36     -14.5729      1.00000
     37     -14.5368      1.00000
     38     -14.5118      1.00000
     39     -14.4613      1.00000
     40     -14.3950      1.00000
     41      -3.3213      1.00000
     42      -3.2211      1.00000
     43      -2.6503      1.00000
     44      -2.6326      1.00000
     45      -2.6085      1.00000
     46      -2.5352      1.00000
     47      -2.1623      1.00000
     48      -2.0558      1.00000
     49      -1.9002      1.00000
     50      -1.6987      1.00000
     51      -1.5473      1.00000
     52      -1.3705      1.00000
     53      -1.1621      1.00000
     54      -1.0603      1.00000
     55      -0.8802      1.00000
     56      -0.8729      1.00000
     57      -0.8421      1.00000
     58      -0.7156      1.00000
     59      -0.6232      1.00000
     60      -0.5780      1.00000
[...]
    139      13.3131      0.00000
    140      13.4857      0.00000
    141      13.6197      0.00000
    142      13.6245      0.00000
    143      13.7847      0.00000
    144      14.0083      0.00000
    145      14.4571      0.00000
    146      14.6682      0.00000
    147      14.9675      0.00000
    148      15.0583      0.00000
    149      15.1886      0.00000
    150      15.2828      0.00000
    151      15.6522      0.00000
    152      15.7975      0.00000
    153      16.1426      0.00000

[...]

 spin component 2

[...]

 k-point    86 :       0.4286    0.5000    0.5000
  band No.  band energies     occupation
      1     -46.6371      1.00000
      2     -46.6371      1.00000
      3     -46.6370      1.00000
      4     -46.6370      1.00000
      5     -46.2504      1.00000
      6     -46.2504      1.00000
      7     -46.2488      1.00000
      8     -46.2488      1.00000
      9     -46.0705      1.00000
     10     -46.0705      1.00000
     11     -46.0705      1.00000
     12     -46.0705      1.00000
     13     -46.0013      1.00000
     14     -46.0013      1.00000
     15     -46.0011      1.00000
     16     -46.0011      1.00000
     17     -45.6984      1.00000
     18     -45.6984      1.00000
     19     -45.6927      1.00000
     20     -45.6927      1.00000
     21     -45.6117      1.00000
     22     -45.6117      1.00000
     23     -45.6067      1.00000
     24     -45.6067      1.00000
     25     -15.8379      1.00000
     26     -15.8379      1.00000
     27     -15.8353      1.00000
     28     -15.8353      1.00000
     29     -15.0322      1.00000
     30     -15.0322      1.00000
     31     -15.0280      1.00000
     32     -15.0280      1.00000
     33     -14.4323      1.00000
     34     -14.4323      1.00000
     35     -14.4317      1.00000
     36     -14.4317      1.00000
     37     -14.2643      1.00000
     38     -14.2643      1.00000
     39     -14.2638      1.00000
     40     -14.2638      1.00000
     41      -2.5801      1.00000
     42      -2.5800      1.00000
     43      -2.5773      1.00000
     44      -2.5773      1.00000
     45      -1.0048      1.00000
     46      -1.0048      1.00000
     47      -1.0027      1.00000
     48      -1.0027      1.00000
     49      -0.7145      1.00000
     50      -0.7145      1.00000
     51      -0.7132      1.00000
     52      -0.7132      1.00000
     53      -0.3464      1.00000
     54      -0.3463      1.00000
     55      -0.3449      1.00000
     56      -0.3449      1.00000
     57      -0.0341      1.00000
     58      -0.0341      1.00000
     59      -0.0333      1.00000
     60      -0.0333      1.00000
[...]
    139      13.7459      0.00000
    140      13.7459      0.00000
    141      14.3612      0.00000
    142      14.3612      0.00000
    143      14.3632      0.00000
    144      14.3632      0.00000
    145      15.3224      0.00000
    146      15.3224      0.00000
    147      15.3233      0.00000
    148      15.3233      0.00000
    149      16.2489      0.00000
    150      16.2489      0.00000
    151      16.2516      0.00000
    152      16.2516      0.00000
    153      16.7676      0.00000

 soft charge-density along one line, spin component           1
         0         1         2         3         4         5         6         7         8         9
 total charge-density along one line

 soft charge-density along one line, spin component           2
         0         1         2         3         4         5         6         7         8         9
 total charge-density along one line

------------------------ aborting loop because EDIFF is reached ----------------------------------------

 total charge

# of ion       s       p       d       tot
    1        0.216   6.212   5.943  12.372
    2        0.216   6.212   5.943  12.372
    3        0.216   6.212   5.943  12.372
    4        0.216   6.212   5.943  12.372
    5        0.204   6.200   5.932  12.336
    6        0.204   6.200   5.932  12.336
    7        0.204   6.200   5.932  12.336
    8        0.204   6.200   5.932  12.336
    9        0.667   1.016   0.000   1.683
   10        0.667   1.017   0.000   1.684
   11        0.667   1.017   0.000   1.684
   12        0.667   1.016   0.000   1.683
   13        1.563   3.612   0.000   5.175
   14        1.563   3.612   0.000   5.176
   15        1.563   3.612   0.000   5.176
   16        1.563   3.612   0.000   5.175
   17        1.566   3.601   0.000   5.167
   18        1.566   3.601   0.000   5.167
   19        1.566   3.601   0.000   5.167
   20        1.566   3.601   0.000   5.167
   21        1.565   3.593   0.000   5.158
   22        1.565   3.593   0.000   5.158
   23        1.565   3.593   0.000   5.158
   24        1.565   3.593   0.000   5.158
   25        1.565   3.593   0.000   5.158
   26        1.565   3.593   0.000   5.158
   27        1.565   3.593   0.000   5.158
   28        1.565   3.593   0.000   5.158
tot         29.385 111.312  47.499 188.196

 magnetization (x)

[...]

  FORCE on cell =-STRESS in cart. coord.  units (eV):
  Direction    XX          YY          ZZ          XY          YZ          ZX
  Alpha Z   816.95274   816.95274   816.95274
  Ewald   -6316.93254 -6161.19073 -5239.01165    -0.00047     0.00096    -0.00031
  Hartree  2291.67489  2736.67272  3204.54320    -0.00029     0.00036    -0.00016
  E(xc)   -1374.61081 -1372.73038 -1373.42391     0.00000    -0.00000    -0.00000
  Local     419.51400  -253.79874 -1551.44654     0.00078    -0.00102     0.00042
  n-local  -479.42347  -499.42118  -476.41732    -0.00000     0.00007    -0.00001
  augment  1287.92611  1315.93168  1265.03780    -0.00001    -0.00018     0.00003
  Kinetic  3354.93268  3417.48237  3353.78179    -0.00001    -0.00018     0.00002
  Fock        0.00000     0.00000     0.00000     0.00000     0.00000     0.00000
  Total       0.03361    -0.10152     0.01612    -0.00001    -0.00000    -0.00001
  in kB       0.17527    -0.52945     0.08407    -0.00003    -0.00000    -0.00006

 VOLUME and BASIS-vectors are now :
  energy-cutoff  :      520.00
  volume of cell :      307.22
      direct lattice vectors                 reciprocal lattice vectors
     4.825176688  0.000000226  0.000000160     0.207246297 -0.000000005 -0.000000006
     0.000000277 10.457384758 -0.000000923    -0.000000004  0.095626203  0.000000007
     0.000000166 -0.000000418  6.088533043    -0.000000005  0.000000014  0.164243175

  length of vectors
     4.825176688 10.457384758  6.088533043     0.207246297  0.095626203  0.164243175

 FORCES acting on ions
    electron-ion (+dipol)            ewald-force                    non-local-force                 convergence-correction
   -.818E-01 0.539E-01 -.932E+00   0.765E-01 -.664E-01 0.910E+00   -.431E-03 0.143E-01 0.513E-02   0.256E-05 -.426E-04 -.888E-05
   -.821E-01 -.534E-01 -.933E+00   0.767E-01 0.659E-01 0.911E+00   -.448E-03 -.143E-01 0.511E-02   0.342E-05 0.424E-04 -.123E-04
   -.819E-01 0.533E-01 0.932E+00   0.766E-01 -.658E-01 -.911E+00   -.437E-03 0.143E-01 -.514E-02   0.173E-05 -.424E-04 0.101E-04
   -.820E-01 -.538E-01 0.933E+00   0.767E-01 0.663E-01 -.911E+00   -.442E-03 -.143E-01 -.511E-02   0.437E-05 0.420E-04 0.103E-04
   -.209E+02 -.495E+02 -.140E-03   0.218E+02 0.527E+02 0.144E-03   -.897E+00 -.317E+01 -.249E-05   0.363E-04 -.179E-03 -.137E-05
   0.210E+02 -.494E+02 -.527E-04   -.218E+02 0.525E+02 0.575E-04   0.770E+00 -.316E+01 -.477E-05   -.527E-04 -.218E-03 -.805E-07
   0.210E+02 0.494E+02 0.207E-03   -.218E+02 -.525E+02 -.203E-03   0.770E+00 0.316E+01 -.497E-05   -.511E-04 0.217E-03 0.284E-06
   -.209E+02 0.495E+02 -.387E-04   0.218E+02 -.527E+02 0.279E-04   -.897E+00 0.317E+01 0.126E-04   0.362E-04 0.179E-03 0.559E-06
   0.688E+02 -.240E+02 -.216E-04   -.662E+02 0.237E+02 0.207E-04   -.246E+01 0.251E+00 0.377E-05   0.202E-05 0.535E-04 0.279E-06
   -.687E+02 -.241E+02 -.911E-05   0.661E+02 0.238E+02 0.160E-04   0.246E+01 0.237E+00 -.758E-05   0.115E-04 0.679E-04 0.257E-06
   -.687E+02 0.241E+02 0.397E-04   0.661E+02 -.238E+02 -.376E-04   0.246E+01 -.237E+00 -.332E-05   0.112E-04 -.684E-04 0.410E-06
   0.688E+02 0.240E+02 -.733E-05   -.662E+02 -.237E+02 -.420E-06   -.246E+01 -.251E+00 0.740E-05   0.204E-05 -.541E-04 0.151E-06
   -.139E+03 -.409E+02 -.402E-03   0.119E+03 0.424E+02 0.423E-03   0.197E+02 -.148E+01 -.181E-04   -.142E-03 -.200E-04 0.248E-06
   0.139E+03 -.417E+02 0.120E-03   -.119E+03 0.432E+02 -.131E-03   -.197E+02 -.151E+01 0.672E-05   0.123E-03 0.878E-05 0.489E-07
   0.139E+03 0.417E+02 -.228E-03   -.119E+03 -.432E+02 0.258E-03   -.197E+02 0.151E+01 -.247E-04   0.121E-03 -.797E-05 0.354E-06
   -.139E+03 0.409E+02 0.348E-03   0.119E+03 -.424E+02 -.373E-03   0.197E+02 0.148E+01 0.214E-04   -.143E-03 0.197E-04 0.112E-07
   -.784E+02 0.579E+02 0.580E-04   0.726E+02 -.800E+02 -.665E-04   0.575E+01 0.221E+02 0.627E-05   -.308E-04 -.688E-04 -.665E-07
   0.779E+02 0.578E+02 -.948E-04   -.721E+02 -.799E+02 0.101E-03   -.579E+01 0.221E+02 -.472E-05   0.593E-04 -.959E-04 0.266E-06
   0.779E+02 -.578E+02 0.585E-04   -.721E+02 0.799E+02 -.599E-04   -.579E+01 -.221E+02 0.871E-06   0.596E-04 0.963E-04 0.734E-07
   -.784E+02 -.579E+02 -.340E-04   0.726E+02 0.800E+02 0.392E-04   0.575E+01 -.221E+02 -.346E-05   -.302E-04 0.693E-04 0.711E-08
   0.408E+02 -.548E+02 0.970E+01   -.305E+02 0.670E+02 -.269E+02   -.103E+02 -.122E+02 0.172E+02   0.701E-04 0.725E-04 -.747E-04
   -.406E+02 -.548E+02 -.976E+01   0.303E+02 0.670E+02 0.270E+02   0.103E+02 -.122E+02 -.172E+02   -.647E-04 0.117E-03 0.782E-04
   -.406E+02 0.548E+02 0.976E+01   0.303E+02 -.670E+02 -.270E+02   0.103E+02 0.122E+02 0.172E+02   -.643E-04 -.116E-03 -.795E-04
   0.408E+02 0.548E+02 -.970E+01   -.305E+02 -.670E+02 0.269E+02   -.103E+02 0.122E+02 -.172E+02   0.708E-04 -.728E-04 0.754E-04
   -.406E+02 0.548E+02 -.976E+01   0.303E+02 -.670E+02 0.270E+02   0.103E+02 0.122E+02 -.172E+02   -.638E-04 -.116E-03 0.795E-04
   0.408E+02 0.548E+02 0.970E+01   -.305E+02 -.670E+02 -.269E+02   -.103E+02 0.122E+02 0.172E+02   0.715E-04 -.726E-04 -.751E-04
   0.408E+02 -.548E+02 -.970E+01   -.305E+02 0.670E+02 0.269E+02   -.103E+02 -.122E+02 -.172E+02   0.701E-04 0.723E-04 0.746E-04
   -.406E+02 -.548E+02 0.976E+01   0.303E+02 0.670E+02 -.270E+02   0.103E+02 -.122E+02 0.172E+02   -.643E-04 0.116E-03 -.781E-04
   0.234E+00 0.309E-04 0.229E-04   -.959E-13 -.568E-13 0.110E-12   -.265E+00 -.212E-04 -.112E-04   0.510E-04 -.129E-05 0.993E-06

 POSITION                                       TOTAL-FORCE (eV/Angst)
      2.41222      5.22886      6.08763        -0.003400      0.001911     -0.011847
      4.82481     10.45721      3.04336        -0.003416     -0.001912     -0.011892
      2.41222      5.22887      3.04517        -0.003415      0.001914      0.011888
      4.82481     10.45721      0.00090        -0.003403     -0.001910      0.011858
      2.47956      8.14773      1.52213        -0.005078     -0.013564     -0.000000
      4.75837      2.91958      1.52213         0.007352     -0.010454     -0.000000
      2.34578      2.30911      4.56640         0.007350      0.010453     -0.000001
      0.06697      7.53835      4.56640        -0.005076      0.013560      0.000002
      0.33216      6.24506      1.52213         0.021939      0.006247      0.000003
      2.08041      1.01649      1.52213        -0.022433      0.005760     -0.000001
      4.49300      4.21220      4.56640        -0.022416     -0.005761     -0.000002
      2.74475      9.44102      4.56640         0.021909     -0.006233     -0.000000
      3.53223      6.17965      1.52213        -0.020781     -0.018426      0.000003
      3.70537      0.95096      1.52213         0.019775     -0.014836     -0.000004
      1.29278      4.27774      4.56640         0.019771      0.014838      0.000005
      1.11964      9.50642      4.56640        -0.020767      0.018424     -0.000004
      1.40353      9.96661      1.52213        -0.004773     -0.018261     -0.000003
      1.00895      4.73789      1.52213         0.008250     -0.018340      0.000002
      3.42154      0.49080      4.56640         0.008253      0.018339     -0.000001
      3.81612      5.71946      4.56640        -0.004775      0.018264      0.000001
      1.01122      6.96765      0.22142        -0.013608      0.005941     -0.007282
      1.40180      1.73879      2.82301         0.014894      0.007403      0.008247
      3.81438      3.48991      3.26552         0.014892     -0.007405     -0.008250
      3.42381      8.71843      5.86711        -0.013607     -0.005945      0.007288
      3.81438      3.48991      5.86727         0.014891     -0.007407      0.008252
      3.42381      8.71843      3.26569        -0.013609     -0.005944     -0.007295
      1.01122      6.96765      2.82284        -0.013610      0.005938      0.007282
      1.40180      1.73879      0.22126         0.014892      0.007405     -0.008246
    total drift:                               -0.031555      0.000008      0.000013

  FREE ENERGIE OF THE ION-ELECTRON SYSTEM (eV)
  free  energy   TOTEN  =      -335.72144942 eV

  energy  without entropy=     -335.72144942  energy(sigma->0) =     -335.72144942

 reached required accuracy - stopping structural energy minimisation

 total charge

[...]

 magnetization (x)

# of ion       s       p       d       tot
    1        0.014   0.015   3.694   3.723
    2        0.014   0.015   3.694   3.723
    3        0.014   0.015   3.694   3.723
    4        0.014   0.015   3.694   3.723
    5        0.016   0.019   3.700   3.734
    6        0.016   0.019   3.700   3.734
    7        0.016   0.019   3.700   3.734
    8        0.016   0.019   3.700   3.734
    9        0.001   0.007   0.000   0.008
   10        0.001   0.007   0.000   0.008
   11        0.001   0.007   0.000   0.008
   12        0.001   0.007   0.000   0.008
   13        0.011   0.065   0.000   0.076
   14        0.011   0.065   0.000   0.076
   15        0.011   0.065   0.000   0.076
   16        0.011   0.065   0.000   0.076
   17        0.011   0.070   0.000   0.081
   18        0.011   0.070   0.000   0.081
   19        0.011   0.070   0.000   0.081
   20        0.011   0.070   0.000   0.081
   21        0.010   0.068   0.000   0.078
   22        0.010   0.068   0.000   0.078
   23        0.010   0.068   0.000   0.078
   24        0.010   0.068   0.000   0.078
   25        0.010   0.068   0.000   0.078
   26        0.010   0.068   0.000   0.078
   27        0.010   0.068   0.000   0.078
   28        0.010   0.068   0.000   0.078
tot          0.298   1.241  29.575  31.114