 vasp.6.1.2 22Jul20 (build Feb 09 2022 12:23:39) complex

 executed on             LinuxIFC date 2022.02.24  07:33:26

 INCAR:
 POTCAR:    PAW_PBE Ca_sv 06Sep2000
 POTCAR:    PAW_PBE V_pv 07Sep2000
 POTCAR:    PAW_PBE P 06Sep2000
 POTCAR:    PAW_PBE O 08Apr2002
 POTCAR:    PAW_PBE Ca_sv 06Sep2000
   VRHFIN =Ca: 3s3p4s

   TITEL  = PAW_PBE Ca_sv 06Sep2000
   POMASS =   40.078; ZVAL   =   10.000    mass and valenz
   ENMAX  =  266.622; ENMIN  =  199.967 eV

   TITEL  = PAW_PBE V_pv 07Sep2000
   POMASS =   50.941; ZVAL   =   11.000    mass and valenz
   ENMAX  =  263.673; ENMIN  =  197.755 eV

   TITEL  = PAW_PBE P 06Sep2000
   POMASS =   30.974; ZVAL   =    5.000    mass and valenz
   ENMAX  =  255.040; ENMIN  =  191.280 eV

   TITEL  = PAW_PBE O 08Apr2002
   POMASS =   16.000; ZVAL   =    6.000    mass and valenz
   ENMAX  =  400.000; ENMIN  =  300.000 eV

 Optimization of the real space projectors (new method)

 maximal supplied QI-value         = 16.25
 optimisation between [QCUT,QGAM] = [ 11.54, 23.24] = [ 37.28,151.24] Ry
 Optimized for a Real-space Cutoff    1.58 Angstroem

   l    n(q)    QCUT    max X(q) W(low)/X(q) W(high)/X(q)  e(spline)
   0     11    11.539    11.817    0.25E-04    0.22E-05    0.26E-07
   0     11    11.539     8.461    0.39E-04    0.49E-05    0.55E-07
   1     11    11.539     3.957    0.21E-05    0.44E-05    0.32E-07
   1     11    11.539     4.314    0.56E-04    0.44E-04    0.19E-06
   2     10    11.539    14.565    0.25E-03    0.21E-04    0.75E-06
   2     10    11.539    14.552    0.23E-03    0.22E-04    0.72E-06
 Optimization of the real space projectors (new method)

[...]

   l    n(q)    QCUT    max X(q) W(low)/X(q) W(high)/X(q)  e(spline)
   0      8    11.508   160.924    0.96E-04    0.17E-03    0.52E-07
   0      8    11.508   130.086    0.95E-04    0.17E-03    0.51E-07
   1      8    11.508    74.434    0.16E-03    0.74E-04    0.91E-07
   1      8    11.508    49.120    0.16E-03    0.71E-04    0.89E-07
 Optimization of the real space projectors (new method)

 maximal supplied QI-value         = 24.76
 optimisation between [QCUT,QGAM] = [ 11.64, 23.27] = [ 37.91,151.63] Ry
 Optimized for a Real-space Cutoff    1.14 Angstroem

   l    n(q)    QCUT    max X(q) W(low)/X(q) W(high)/X(q)  e(spline)
   0      8    11.635    20.381    0.10E-03    0.33E-03    0.24E-06
   0      8    11.635    15.268    0.11E-03    0.35E-03    0.26E-06
   1      7    11.635     5.964    0.24E-03    0.31E-03    0.30E-06
   1      7    11.635     5.382    0.22E-03    0.25E-03    0.26E-06
  PAW_PBE Ca_sv 06Sep2000               :
  PAW_PBE V_pv 07Sep2000                :
  PAW_PBE P 06Sep2000                   :
  PAW_PBE O 08Apr2002                   :

 POSCAR: Ca20 V16 P24 O96
  positions in direct lattice
  velocities in cartesian coordinates

 METAGGA = SCAN     LMAXTAU =  6    LMIXTAU =  F

 ion  position               nearest neighbor table
   1  0.563  0.735  0.419-  68 2.36  60 2.39 136 2.42 120 2.46 100 2.51  85 2.52  52 2.91  45 2.94
                            36 3.07
   2  0.504  0.982  0.017-  77 2.23  89 2.33 105 2.34  61 2.35  69 2.41  97 2.54
   3  0.004  0.977  0.517-  78 2.24  90 2.33 106 2.36  62 2.37  70 2.42  98 2.56
   4  0.002  0.480  0.019-  79 2.24  91 2.33 107 2.34  63 2.35  71 2.42
   5  0.483  0.019  0.490-  94 2.24  85 2.35  81 2.37  72 2.38 100 2.42  66 2.52
   6  0.475  0.514  0.998-  95 2.26  73 2.35  80 2.36 101 2.39  84 2.40
   7  0.984  0.518  0.488-  92 2.25  87 2.32  83 2.35  74 2.35 102 2.48
   8  0.978  0.015  0.994-  93 2.24  75 2.34  82 2.35  86 2.36 103 2.40  65 2.56
   9  0.574  0.429  0.264- 124 2.30  88 2.35  96 2.42  80 2.55  56 2.90  51 3.04
  10  0.572  0.917  0.741- 125 2.34 133 2.36  89 2.47  81 2.52  66 2.54  97 2.57  50 2.87  57 2.89

  11  0.076  0.913  0.244- 126 2.33 134 2.44  90 2.52  82 2.56  65 2.57  58 2.82  49 2.86
  12  0.068  0.415  0.737- 127 2.35 135 2.41  91 2.43  64 2.50  83 2.54  99 2.55  48 2.86  59 2.95

[...]

  17  0.580  0.252  0.921- 121 2.40 137 2.40 101 2.47  84 2.48  61 2.50  69 2.53  44 2.86  53 2.86

  18  0.074  0.247  0.420- 122 2.38 138 2.39 102 2.46  87 2.46  70 2.49  62 2.50 148 2.54  54 2.85
                            47 2.89
  19  0.075  0.747  0.918- 123 2.37 139 2.37  63 2.47 103 2.48  86 2.49  71 2.50 117 2.55  46 2.85
                            55 2.85
  20  0.639  0.635  0.639-  76 1.97  60 2.02 128 2.05  68 2.12 112 2.13 120 2.20
  21  0.647  0.136  0.147- 113 2.09 129 2.10  77 2.12  61 2.16 121 2.17  69 2.17
  22  0.145  0.139  0.643- 130 2.07  78 2.09 122 2.11 114 2.12  62 2.14  70 2.19
  23  0.147  0.641  0.138- 115 2.05 131 2.06  79 2.11  63 2.13 123 2.13  71 2.16
  24  0.147  0.148  0.146- 116 2.08 126 2.12 109 2.13  82 2.17  65 2.18  75 2.18
  25  0.145  0.647  0.645- 117 2.07 108 2.11 127 2.11  64 2.17  83 2.21  74 2.22
  26  0.648  0.648  0.145- 118 2.05  80 2.12 111 2.12 124 2.12  67 2.17  73 2.25
  27  0.646  0.150  0.649- 119 2.04  72 2.07 125 2.11 110 2.14  81 2.20  66 2.21
  28  0.853  0.856  0.847- 153 2.07 144 2.10  93 2.11 139 2.14  86 2.14 103 2.18
  29  0.851  0.355  0.350-  92 2.06 145 2.08 152 2.10 138 2.14  87 2.17 102 2.18
  30  0.354  0.356  0.848- 146 2.07 155 2.07  95 2.10  84 2.11 137 2.13 101 2.17
  31  0.351  0.859  0.351- 154 2.06 147 2.11  94 2.12 100 2.15  85 2.16 136 2.16
  32  0.348  0.348  0.350- 148 2.04  88 2.04  96 2.12 140 2.13 104 2.14 132 2.14
  33  0.351  0.850  0.852- 149 2.09 133 2.11 141 2.12  97 2.17 105 2.17  89 2.19
  34  0.853  0.849  0.350- 150 2.00 142 2.10 134 2.13  90 2.13  98 2.15 106 2.18
  35  0.850  0.349  0.851- 151 2.06 143 2.12 135 2.14  99 2.17 107 2.19  91 2.22
  36  0.401  0.756  0.597- 108 1.52 133 1.53  68 1.54 100 1.56   1 3.07
  37  0.403  0.248  0.095- 132 1.52 109 1.53  69 1.56 101 1.56
  38  0.901  0.247  0.594- 110 1.52 135 1.52 102 1.56  70 1.56
  39  0.902  0.749  0.094- 111 1.52 134 1.52 103 1.56  71 1.56
  40  0.397  0.600  0.244- 115 1.50  80 1.54 136 1.55  96 1.56  13 2.99
  41  0.403  0.102  0.755- 114 1.50 137 1.53  81 1.54  97 1.58  14 2.87
  42  0.904  0.099  0.252- 113 1.50 138 1.53  82 1.54  98 1.58  15 2.92
  43  0.900  0.601  0.751- 112 1.50 139 1.53  83 1.55  99 1.58  16 2.90
  44  0.605  0.407  0.759-  76 1.49 119 1.52 143 1.56  84 1.57  17 2.86
  45  0.607  0.900  0.261- 118 1.51  77 1.52 142 1.54  85 1.55   1 2.94
  46  0.107  0.904  0.760- 117 1.51  78 1.52 141 1.54  86 1.55  19 2.85
  47  0.108  0.407  0.261- 116 1.52  79 1.52 140 1.53  87 1.56  18 2.89
  48  0.241  0.389  0.594- 146 1.50 104 1.51 122 1.54  64 1.59  12 2.86  13 3.00
  49  0.242  0.895  0.092- 147 1.50 123 1.53 105 1.54  65 1.58  11 2.86
  50  0.740  0.894  0.591- 144 1.50 120 1.53 106 1.54  66 1.58  10 2.87
  51  0.742  0.395  0.096- 145 1.50 121 1.53 107 1.55  67 1.57   9 3.04
  52  0.745  0.597  0.395- 150 1.51  92 1.52  60 1.53 124 1.55   1 2.91
  53  0.737  0.092  0.891- 151 1.51  93 1.52 125 1.54  61 1.55  17 2.86
  54  0.237  0.094  0.390- 148 1.52  94 1.52 126 1.54  62 1.55  18 2.85
  55  0.235  0.591  0.888- 149 1.51  95 1.51 127 1.54  63 1.56  19 2.85
  56  0.597  0.242  0.394-  88 1.51 152 1.53 129 1.54  72 1.54  15 2.86   9 2.90
  57  0.601  0.747  0.891- 153 1.51 128 1.52  89 1.55  73 1.55  10 2.89  16 2.94
  58  0.107  0.752  0.393- 131 1.51 154 1.52  74 1.54  90 1.55  11 2.82
  59  0.102  0.247  0.894- 130 1.51 155 1.51  75 1.55  91 1.55  14 2.87  12 2.95
  60  0.668  0.593  0.487-  52 1.53  20 2.02   1 2.39
  61  0.658  0.082  0.985-  53 1.55  21 2.16   2 2.35  17 2.50
  62  0.159  0.080  0.484-  54 1.55  22 2.14   3 2.37  18 2.50
  63  0.155  0.580  0.981-  55 1.56  23 2.13   4 2.35  19 2.47
  64  0.164  0.487  0.580-  48 1.59  25 2.17  13 2.49  12 2.50
  65  0.161  0.988  0.076-  49 1.58  24 2.18  14 2.55   8 2.56  11 2.57
  66  0.660  0.989  0.576-  50 1.58  27 2.21   5 2.52  15 2.53  10 2.54
  67  0.660  0.486  0.080-  51 1.57  26 2.17  16 2.56
  68  0.488  0.673  0.578-  36 1.54  20 2.12   1 2.36
  69  0.492  0.165  0.078-  37 1.56  21 2.17   2 2.41  17 2.53
  70  0.988  0.161  0.575-  38 1.56  22 2.19   3 2.42  18 2.49
  71  0.990  0.665  0.075-  39 1.56  23 2.16   4 2.42  19 2.50
  72  0.595  0.174  0.495-  56 1.54  27 2.07   5 2.38  15 2.49
  73  0.592  0.659  0.975-  57 1.55  26 2.25   6 2.35  16 2.40
  74  0.107  0.660  0.474-  58 1.54  25 2.22   7 2.35  13 2.52
  75  0.089  0.165  0.984-  59 1.55  24 2.18   8 2.34  14 2.47
  76  0.597  0.487  0.673-  44 1.49  20 1.97
  77  0.595  0.975  0.168-  45 1.52  21 2.12   2 2.23
  78  0.096  0.980  0.669-  46 1.52  22 2.09   3 2.24
  79  0.094  0.485  0.171-  47 1.52  23 2.11   4 2.24
[...]
 141  0.204  0.927  0.831-  46 1.54  33 2.12  14 2.35
 142  0.706  0.923  0.327-  45 1.54  34 2.10  15 2.32
 143  0.701  0.424  0.835-  44 1.56  35 2.12  16 2.31
 144  0.782  0.895  0.702-  50 1.50  28 2.10
 145  0.790  0.402  0.205-  51 1.50  29 2.08
 146  0.281  0.390  0.706-  48 1.50  30 2.07
 147  0.282  0.895  0.204-  49 1.50  31 2.11
 148  0.269  0.211  0.390-  54 1.52  32 2.04  18 2.54
 149  0.273  0.707  0.887-  55 1.51  33 2.09
 150  0.799  0.705  0.392-  52 1.51  34 2.00
 151  0.776  0.207  0.890-  53 1.51  35 2.06
 152  0.693  0.316  0.385-  56 1.53  29 2.10
 153  0.708  0.803  0.903-  57 1.51  28 2.07
 154  0.201  0.827  0.406-  58 1.52  31 2.06
 155  0.210  0.299  0.903-  59 1.51  30 2.07

IMPORTANT INFORMATION: All symmetrisations will be switched off!
NOSYMM: (Re-)initialisation of all symmetry stuff for point group C_1.

                                     Primitive cell

  volume of cell :    1996.7070

  direct lattice vectors                    reciprocal lattice vectors
    -5.194518404  7.350508999  8.875454575    -0.031668102  0.045627293  0.056348171
     5.104105529 -7.292354495  8.773447627     0.033249081 -0.045304841  0.056980361
    10.288441417  7.343858196 -0.164423267     0.064712682  0.045512482  0.000181547

  length of vectors
    12.640676323 12.498148287 12.641650011     0.079119119  0.080029942  0.079114791

  position of ions in fractional coordinates (direct lattice)
     0.563129242  0.734872496  0.419032201
     0.503735314  0.981722578  0.017283148
     0.004006789  0.976837062  0.517065510
     0.001849259  0.479510956  0.018521572
     0.482742996  0.019275592  0.490393396
     0.474838482  0.513756978  0.997939606
     0.984427882  0.518253564  0.487945135
     0.978162458  0.014983767  0.993849665
     0.574277773  0.429153120  0.264046811
     0.571778614  0.916631096  0.740590582
     0.075845310  0.913323895  0.244010576
     0.068463063  0.415472034  0.737016250
     0.282652665  0.571496786  0.448031159
     0.254819204  0.082310750  0.924948921
     0.750183690  0.078297626  0.421981230
     0.754971936  0.577105300  0.926516566
     0.579627743  0.252258218  0.921245985
     0.073776715  0.247140107  0.419910790
     0.074648210  0.746574114  0.917546150
     0.638835563  0.635225619  0.639217611
     0.646671105  0.135857138  0.147245811
     0.144756908  0.138668645  0.643240407
     0.146729962  0.641216832  0.138310809
     0.147145910  0.147939548  0.145773030
     0.145267313  0.647169723  0.644598261
     0.647678863  0.647542740  0.144570980
     0.645830402  0.149793153  0.648655294
[...]
   0.427E+02 -.468E+02 0.305E+02   -.409E+02 0.455E+02 -.303E+02   -.177E+01 0.129E+01 -.160E+00
   0.201E+02 -.236E+02 0.375E+02   -.187E+02 0.233E+02 -.368E+02   -.138E+01 0.303E+00 -.745E+00
   0.282E+02 -.295E+02 0.319E+02   -.264E+02 0.285E+02 -.313E+02   -.173E+01 0.969E+00 -.613E+00
   0.740E+01 -.523E+02 -.111E+03   -.694E+01 0.543E+02 0.109E+03   -.456E+00 -.196E+01 0.184E+01
   -.118E+02 0.394E+02 -.505E+02   0.123E+02 -.384E+02 0.488E+02   -.508E+00 -.998E+00 0.164E+01
   -.395E+02 0.336E+02 -.739E+02   0.397E+02 -.334E+02 0.712E+02   -.255E+00 -.128E+00 0.265E+01
   -.874E+01 0.603E+02 -.359E+02   0.917E+01 -.592E+02 0.332E+02   -.431E+00 -.105E+01 0.268E+01
   0.240E+02 0.471E+01 -.346E+02   -.230E+02 -.494E+01 0.340E+02   -.108E+01 0.234E+00 0.558E+00
   0.342E+02 0.160E+02 -.349E+02   -.327E+02 -.161E+02 0.344E+02   -.152E+01 0.926E-01 0.487E+00
   0.493E+02 0.317E+01 -.964E+01   -.482E+02 -.326E+01 0.900E+01   -.109E+01 0.893E-01 0.645E+00
   0.821E+02 -.981E+02 0.955E+02   -.830E+02 0.991E+02 -.982E+02   0.789E+00 -.933E+00 0.266E+01
   -.192E+02 -.645E+02 -.661E+02   0.202E+02 0.661E+02 0.661E+02   -.909E+00 -.160E+01 0.196E-01
   0.343E+02 -.122E+03 -.620E+02   -.332E+02 0.123E+03 0.623E+02   -.105E+01 -.108E+01 -.296E+00
   -.117E+02 -.172E+03 -.141E+02   0.124E+02 0.174E+03 0.149E+02   -.611E+00 -.192E+01 -.720E+00
   -.695E+02 0.935E+02 -.184E+03   0.713E+02 -.930E+02 0.185E+03   -.180E+01 -.494E+00 -.151E+01
   -.173E+02 0.895E+02 -.142E+03   0.191E+02 -.884E+02 0.145E+03   -.184E+01 -.114E+01 -.223E+01
   -.475E+02 0.746E+02 -.143E+03   0.503E+02 -.737E+02 0.145E+03   -.277E+01 -.960E+00 -.136E+01
   -.655E+02 0.106E+03 -.187E+03   0.672E+02 -.107E+03 0.189E+03   -.168E+01 0.108E+01 -.225E+01
   0.647E+02 0.138E+03 0.101E+02   -.644E+02 -.140E+03 -.112E+02   -.302E+00 0.132E+01 0.111E+01
   0.849E+01 0.114E+03 0.334E+02   -.785E+01 -.116E+03 -.339E+02   -.624E+00 0.218E+01 0.541E+00
   0.829E+02 0.152E+03 -.433E+02   -.833E+02 -.154E+03 0.428E+02   0.396E+00 0.142E+01 0.565E+00
   0.836E+02 0.672E+02 -.123E+01   -.825E+02 -.686E+02 0.597E-01   -.106E+01 0.133E+01 0.113E+01
   0.541E+02 -.115E+03 0.212E+02   -.544E+02 0.117E+03 -.221E+02   0.272E+00 -.128E+01 0.882E+00
   0.130E+03 -.111E+03 0.141E+03   -.131E+03 0.110E+03 -.143E+03   0.942E+00 0.783E+00 0.207E+01
   0.994E+02 -.547E+02 0.151E+03   -.100E+03 0.552E+02 -.154E+03   0.692E+00 -.479E+00 0.302E+01
   0.122E+03 -.663E+02 0.124E+03   -.122E+03 0.653E+02 -.127E+03   0.325E+00 0.974E+00 0.262E+01
   -.464E+02 -.199E+02 0.595E+02   0.463E+02 0.213E+02 -.600E+02   0.761E-01 -.143E+01 0.536E+00
   -.810E+02 -.982E+01 0.251E+02   0.833E+02 0.102E+02 -.253E+02   -.235E+01 -.357E+00 0.232E+00
   -.819E+02 0.180E+02 0.469E+02   0.832E+02 -.183E+02 -.479E+02   -.134E+01 0.276E+00 0.996E+00
   -.794E+02 -.600E+00 0.533E+02   0.806E+02 0.520E+00 -.540E+02   -.118E+01 0.825E-01 0.738E+00
   0.229E+02 0.540E+02 -.104E+02   -.227E+02 -.567E+02 0.794E+01   -.228E+00 0.284E+01 0.252E+01
   0.680E+02 0.932E+02 -.274E+02   -.659E+02 -.965E+02 0.263E+02   -.228E+01 0.335E+01 0.119E+01
   0.452E+02 0.873E+02 -.211E+02   -.438E+02 -.911E+02 0.195E+02   -.153E+01 0.392E+01 0.176E+01
   0.706E+02 0.920E+02 -.496E+00   -.682E+02 -.955E+02 -.104E+01   -.259E+01 0.361E+01 0.162E+01
   0.888E+02 0.132E+03 -.554E+01   -.908E+02 -.133E+03 0.630E+01   0.206E+01 0.106E+01 -.764E+00
   0.595E+02 0.704E+02 0.498E+01   -.611E+02 -.692E+02 -.598E+01   0.158E+01 -.129E+01 0.107E+01
   0.656E+02 0.832E+02 -.972E+01   -.669E+02 -.820E+02 0.885E+01   0.137E+01 -.126E+01 0.930E+00
   0.499E+02 0.798E+02 -.225E+02   -.512E+02 -.782E+02 0.221E+02   0.129E+01 -.169E+01 0.427E+00
   0.630E+02 -.963E+02 -.873E+02   -.631E+02 0.992E+02 0.878E+02   -.335E-02 -.303E+01 -.496E+00
   0.455E+02 -.885E+02 -.505E+02   -.433E+02 0.916E+02 0.494E+02   -.226E+01 -.322E+01 0.112E+01
   0.478E+02 -.806E+02 -.314E+02   -.456E+02 0.840E+02 0.300E+02   -.227E+01 -.351E+01 0.143E+01
   0.240E+02 -.791E+02 -.265E+02   -.214E+02 0.826E+02 0.253E+02   -.274E+01 -.371E+01 0.127E+01
   0.170E+02 -.770E+02 -.436E+01   -.154E+02 0.762E+02 0.615E+01   -.165E+01 0.747E+00 -.188E+01
   0.379E+02 -.771E+02 -.479E+02   -.378E+02 0.759E+02 0.496E+02   -.732E-01 0.123E+01 -.173E+01
   0.327E+02 -.866E+02 -.643E+02   -.329E+02 0.853E+02 0.658E+02   0.146E+00 0.145E+01 -.158E+01
   0.596E+02 -.867E+02 -.505E+02   -.598E+02 0.855E+02 0.523E+02   0.185E+00 0.127E+01 -.182E+01
   -.103E+03 0.335E+02 0.421E+01   0.102E+03 -.349E+02 -.325E+01   0.197E+01 0.143E+01 -.983E+00
   -.569E+02 -.897E+01 0.560E+02   0.532E+02 0.876E+01 -.530E+02   0.391E+01 0.232E+00 -.314E+01
   -.441E+02 -.524E+02 0.594E+02   0.409E+02 0.514E+02 -.561E+02   0.335E+01 0.113E+01 -.336E+01
   -.738E+02 0.147E+02 0.311E+02   0.694E+02 -.142E+02 -.290E+02   0.461E+01 -.545E+00 -.218E+01
   0.261E+02 -.127E+03 0.167E+03   -.246E+01 0.132E+03 -.190E+03   -.236E+02 -.462E+01 0.222E+02
[...]
   0.245E+02 0.241E+02 0.259E+01   -.173E+02 -.391E+01 0.195E+02   -.726E+01 -.201E+02 -.221E+02
   0.251E+02 0.633E+02 -.143E+02   -.165E+02 -.431E+02 0.327E+02   -.867E+01 -.202E+02 -.184E+02
   0.398E+02 -.813E+02 -.103E+03   -.170E+02 0.106E+03 0.114E+03   -.227E+02 -.249E+02 -.112E+02
   0.216E+02 -.661E+02 -.108E+03   0.829E+00 0.902E+02 0.123E+03   -.225E+02 -.241E+02 -.149E+02
   0.708E+02 -.707E+02 -.147E+03   -.482E+02 0.950E+02 0.157E+03   -.226E+02 -.243E+02 -.103E+02
   0.452E+02 -.102E+03 -.119E+03   -.224E+02 0.127E+03 0.130E+03   -.228E+02 -.256E+02 -.107E+02
   0.254E+02 -.100E+03 -.115E+03   -.139E+02 0.883E+02 0.143E+03   -.115E+02 0.117E+02 -.287E+02
   0.639E+02 -.106E+03 -.102E+03   -.540E+02 0.951E+02 0.132E+03   -.987E+01 0.112E+02 -.303E+02
   0.259E+02 -.119E+03 -.419E+02   -.193E+02 0.114E+03 0.732E+02   -.665E+01 0.523E+01 -.313E+02
   0.383E+02 -.964E+02 -.980E+02   -.283E+02 0.860E+02 0.128E+03   -.100E+02 0.104E+02 -.302E+02
   -.152E+03 0.353E+01 -.749E+02   0.153E+03 -.152E+01 0.109E+03   -.550E+00 -.202E+01 -.339E+02
   -.113E+03 -.278E+02 -.597E+02   0.116E+03 0.402E+02 0.928E+02   -.243E+01 -.123E+02 -.331E+02
   -.130E+03 -.643E+02 -.591E+02   0.138E+03 0.703E+02 0.939E+02   -.803E+01 -.603E+01 -.348E+02
   -.114E+03 -.137E+02 -.822E+02   0.115E+03 0.264E+02 0.115E+03   -.866E+00 -.127E+02 -.327E+02
   0.799E+02 0.853E+00 -.529E+02   -.242E-12 -.533E-12 -.995E-12   -.800E+02 -.912E+00 0.527E+02

 POSITION                                       TOTAL-FORCE (eV/Angst)
      5.13860      1.85610     11.37727         0.003403      0.002586      0.002678
      2.57375     -3.32932     13.08206         0.001459     -0.001515      0.004117
     10.28564     -3.29611      8.52166        -0.000347      0.003882     -0.001601
      2.62879     -3.34753      4.22084        -0.001145     -0.003024     -0.002459
      2.63620      7.00896      4.37317         0.000804      0.002165      0.004275
     10.42569      7.07254      8.55762         0.003641     -0.000370     -0.009252
      2.55299      7.03968     13.20467         0.003340     -0.005754     -0.000345
      5.22175     14.37872      8.65002        -0.001037     -0.004861     -0.001003
      1.92427      3.03090      8.81966        -0.000947      0.007303      0.001174
      9.33014      2.95601     12.99522         0.003827     -0.002987     -0.000475
      6.77855     -4.31127      8.64677         0.005262     -0.007042     -0.001553
      9.34883      2.88355      4.13289         0.002940     -0.011365     -0.001526
      6.05882      1.20099      7.45028         0.003386      0.009575      0.003117
      8.61387      8.06527      2.83270         0.000706     -0.003354     -0.000576
      0.84508      8.04316      7.27566        -0.002422      0.008520     -0.002971
      8.55890      8.14376     11.61275        -0.003508     -0.005633      0.003242
      7.75640      9.18632      7.20740         0.000903      0.003542      0.000550
      5.19870      1.82366      2.75401         0.001654     -0.001108     -0.007787
     12.86336      1.84170      7.06308        -0.003716     -0.007543      0.001246
      6.50192      4.75715     11.13891         0.004800      0.002644      0.001092
     -1.15038      4.84387      6.90757        -0.007179      0.009006      0.003441
      6.57448      4.77630      2.39654         0.000321      0.007512      0.004009
      3.93402     -2.58213      6.90643        -0.009709     -0.010636      0.025740
      1.49098      1.07302      2.57998        -0.012593     -0.009931     -0.017800
      9.18133      1.08156      6.86229         0.003446     -0.012251      0.008551
      1.42885      1.10044     11.40618        -0.005279      0.006626     -0.002908
      4.08469      8.41838      6.94025        -0.000284     -0.004704     -0.005350
      8.65707      6.25120     14.94121         0.015269     -0.000327     -0.007989
      0.99541      6.23429     10.61326        -0.001631      0.002697      0.000388
      8.70317      6.23741      6.12402        -0.011446      0.016626      0.004572
      6.17188     -1.11170     10.59260        -0.005303     -0.012341     -0.007632
      3.57229      2.58440      6.08503        -0.013381      0.006213     -0.013401
     11.27920      2.63610     10.43276         0.019705      0.005276      0.017112
      3.50601      2.64841     14.96643         0.005484      0.003940     -0.015126
      6.11927      9.94701     10.46141        -0.003436      0.000471      0.001964
      7.92114      1.82216     10.08966         0.008865     -0.002410      0.008719
      0.15146      1.84422      5.73578        -0.002939      0.001942      0.000026
      2.68889      9.18053     10.05916        -0.002021      0.002463     -0.005570
      0.10508      1.85240     14.56354        -0.002428     -0.003572     -0.002188
      3.51028      0.33294      8.74015        -0.004698      0.007710      0.001649
      6.19147      7.76754      4.34992         0.002083      0.003185      0.000988
     -1.59370      7.77793      8.85209        -0.001129      0.008973      0.004321
      6.11974      7.74253     13.13532        -0.003081      0.001010      0.004842
      6.74292      7.05146      8.81146        -0.001460     -0.000285     -0.001071
      4.12367     -0.18811     13.23365        -0.001491      0.007396      0.001342
     11.87712     -0.22622      8.75021         0.005292     -0.002243      0.005427
      4.19955     -0.25606      4.48788        -0.000788     -0.001759     -0.003638
      6.84641      3.29821      5.45707         0.005149      0.001573     -0.000018
      4.25760     -4.07781      9.98443         0.000224     -0.002578      0.003910
      6.79621      3.26216     14.31202         0.000318      0.001808      0.006168
     -0.85057      3.28356     10.03871        -0.000901      0.000124      0.001087
      3.24122      4.02275     11.78929         0.000835      0.005506     -0.012840
      5.81406     11.28966      7.20333         0.002398     -0.002157     -0.002794
      3.26406      3.91778      2.86135        -0.002111      0.007621     -0.007649
     10.93537      3.93670      7.13012        -0.000901     -0.001567      0.008272
      2.18649      5.51492      7.35279        -0.000646     -0.002353      0.008057
      9.86197      5.51582     11.75023         0.003700     -0.000047     -0.001078
      7.33060     -1.80743      7.48003         0.002455     -0.003119     -0.003326
      9.93436      5.51626      2.92266        -0.003130     -0.000468     -0.001738
      4.57678      4.15759     11.05057         0.008891     -0.003387      0.006192
[...]
     12.21688      0.84134      9.80339         0.003733     -0.002662     -0.006955
      4.41110      0.86603     14.31400        -0.004111      0.011094      0.007357
      7.11339      8.19018      9.81035         0.000767      0.001184      0.001825
      7.73491      4.37745     14.67958         0.008876      0.006200     -0.010537
      0.05670      4.37937     10.50765        -0.011973      0.007712      0.008689
      7.79814      4.40954      5.79562        -0.000581      0.000521      0.001534
      5.20091     -2.96170     10.32589        -0.002480     -0.018067     -0.006096
      3.68906      3.29642      4.17580         0.001965     -0.004511     -0.011770
     11.31678      3.36894      8.47959        -0.005947      0.003806      0.000294
      3.48005      3.61012     13.21906         0.005530      0.003014      0.013816
      6.19035     10.72983      8.55604        -0.002314      0.005470     -0.006883
      1.98027      5.61830      8.86141        -0.006223     -0.005260     -0.000601
      9.70912      5.97839     13.18211        -0.008587      0.021717      0.004740
      7.36140     -1.57210      8.97752         0.022618     -0.006842      0.001064
      9.72554      6.00496      4.33962        -0.014399      0.010440     -0.012426
    total drift:                               -0.152493     -0.058289     -0.123825

  FREE ENERGIE OF THE ION-ELECTRON SYSTEM (eV)
  free  energy   TOTEN  =     -1744.31767313 eV

  energy  without entropy=    -1744.26733882  energy(sigma->0) =    -1744.29250597

 d Force = 0.9329001E-05[ 0.138E-04, 0.489E-05]  d Energy = 0.2666472E-04-0.173E-04
 d Force =-0.7586157E-02[-0.760E-02,-0.757E-02]  d Ewald  =-0.1874869E-01 0.112E-01

 reached required accuracy - stopping structural energy minimisation

 total charge

[...]

 magnetization (x)

# of ion       s       p       d       tot
    1        0.000   0.000   0.005   0.006
    2        0.000   0.000   0.010   0.011
    3        0.000   0.000   0.010   0.010
    4        0.000   0.000   0.010   0.010
    5        0.000   0.000   0.009   0.009
    6        0.000   0.000   0.008   0.009
    7        0.000   0.000   0.009   0.010
    8        0.000   0.000   0.009   0.009
    9        0.000   0.000   0.006   0.007
   10        0.000   0.000   0.007   0.007
   11        0.000   0.000   0.007   0.007
   12        0.000   0.000   0.007   0.008
   13        0.000   0.000   0.007   0.008
   14        0.000   0.000   0.007   0.008
   15        0.000   0.000   0.006   0.007
   16        0.000   0.000   0.008   0.008
   17        0.000   0.000   0.004   0.005
   18        0.000   0.000   0.005   0.006
   19        0.000   0.000   0.005   0.006
   20        0.009   0.011   2.243   2.263
   21        0.014   0.013   2.557   2.584
   22        0.013   0.013   2.529   2.555
   23        0.011   0.012   2.484   2.508
   24        0.014   0.013   2.610   2.636
   25        0.014   0.013   2.612   2.639
   26        0.014   0.013   2.593   2.619
   27        0.013   0.013   2.540   2.566
   28        0.013   0.013   2.554   2.580
   29        0.013   0.013   2.524   2.550
   30        0.012   0.013   2.473   2.498
   31        0.013   0.013   2.548   2.574
   32        0.012   0.013   2.444   2.468
   33        0.014   0.013   2.611   2.638
   34        0.012   0.013   2.522   2.547
   35        0.014   0.013   2.614   2.641
   36        0.003   0.006   0.000   0.010
   37        0.004   0.006   0.000   0.010
   38        0.004   0.007   0.000   0.011
   39        0.004   0.007   0.000   0.012
   40        0.003   0.007   0.000   0.010
   41        0.003   0.007   0.000   0.010
   42        0.003   0.007   0.000   0.011
   43        0.003   0.006   0.000   0.009
   44        0.004   0.010   0.000   0.014
   45        0.004   0.009   0.000   0.013
   46        0.004   0.009   0.000   0.013
   47        0.004   0.007   0.000   0.011
   48        0.003   0.007   0.000   0.010
   49        0.003   0.007   0.000   0.010
   50        0.002   0.006   0.000   0.008
   51        0.003   0.007   0.000   0.010
   52        0.003   0.008   0.000   0.012
   53        0.004   0.008   0.000   0.012
   54        0.004   0.008   0.000   0.013
   55        0.004   0.008   0.000   0.012
   56        0.004   0.008   0.000   0.011
   57        0.003   0.007   0.000   0.010
   58        0.004   0.008   0.000   0.012
   59        0.003   0.008   0.000   0.011
   60       -0.001  -0.003   0.000  -0.004
[...]
  141        0.000   0.003   0.000   0.003
  142        0.000   0.003   0.000   0.003
  143        0.001   0.004   0.000   0.004
  144       -0.001   0.006   0.000   0.005
  145       -0.001   0.006   0.000   0.005
  146       -0.001   0.005   0.000   0.004
  147       -0.001   0.005   0.000   0.004
  148       -0.001   0.005   0.000   0.005
  149       -0.001   0.009   0.000   0.008
  150       -0.001   0.005   0.000   0.004
  151       -0.001   0.010   0.000   0.009
  152       -0.001   0.007   0.000   0.006
  153       -0.000   0.006   0.000   0.006
  154       -0.000   0.005   0.000   0.005
  155       -0.000   0.005   0.000   0.005
tot          0.277   0.552  40.599  41.428