 vasp.6.1.2 22Jul20 (build Dec 05 2020 14:50:36) complex

 executed on         CrayXC-Intel date 2021.06.07  20:54:26

 INCAR:
 POTCAR:    PAW_PBE Ca_sv 06Sep2000
 POTCAR:    PAW_PBE Si 05Jan2001
 POTCAR:    PAW_PBE O 08Apr2002
 POTCAR:    PAW_PBE Ca_sv 06Sep2000
   VRHFIN =Ca: 3s3p4s

   TITEL  = PAW_PBE Ca_sv 06Sep2000
   POMASS =   40.078; ZVAL   =   10.000    mass and valenz
   ENMAX  =  266.622; ENMIN  =  199.967 eV

 POTCAR:    PAW_PBE Si 05Jan2001
   VRHFIN =Si: s2p2

   TITEL  = PAW_PBE Si 05Jan2001
   POMASS =   28.085; ZVAL   =    4.000    mass and valenz
   ENMAX  =  245.345; ENMIN  =  184.009 eV

 POTCAR:    PAW_PBE O 08Apr2002
   VRHFIN =O: s2p4

   TITEL  = PAW_PBE O 08Apr2002
   POMASS =   16.000; ZVAL   =    6.000    mass and valenz
   ENMAX  =  400.000; ENMIN  =  300.000 eV

 Optimization of the real space projectors (new method)

 maximal supplied QI-value         = 16.25
 optimisation between [QCUT,QGAM] = [ 11.54, 23.24] = [ 37.28,151.24] Ry
 Optimized for a Real-space Cutoff    1.58 Angstroem

   l    n(q)    QCUT    max X(q) W(low)/X(q) W(high)/X(q)  e(spline)
   0     11    11.539    11.817    0.25E-04    0.22E-05    0.26E-07
   0     11    11.539     8.461    0.39E-04    0.49E-05    0.55E-07
   1     11    11.539     3.957    0.21E-05    0.44E-05    0.32E-07
   1     11    11.539     4.314    0.56E-04    0.44E-04    0.19E-06
   2     10    11.539    14.565    0.25E-03    0.21E-04    0.75E-06
   2     10    11.539    14.552    0.23E-03    0.22E-04    0.72E-06
 Optimization of the real space projectors (new method)

[...]

   l    n(q)    QCUT    max X(q) W(low)/X(q) W(high)/X(q)  e(spline)
   0      8    11.508   159.560    0.71E-04    0.15E-03    0.51E-07
   0      8    11.508   115.863    0.70E-04    0.15E-03    0.51E-07
   1      8    11.508    88.339    0.16E-03    0.38E-04    0.82E-07
   1      8    11.508    48.592    0.15E-03    0.36E-04    0.79E-07
 Optimization of the real space projectors (new method)

 maximal supplied QI-value         = 24.76
 optimisation between [QCUT,QGAM] = [ 11.64, 23.27] = [ 37.91,151.63] Ry
 Optimized for a Real-space Cutoff    1.14 Angstroem

   l    n(q)    QCUT    max X(q) W(low)/X(q) W(high)/X(q)  e(spline)
   0      8    11.635    20.381    0.10E-03    0.33E-03    0.24E-06
   0      8    11.635    15.268    0.11E-03    0.35E-03    0.26E-06
   1      7    11.635     5.964    0.24E-03    0.31E-03    0.30E-06
   1      7    11.635     5.382    0.22E-03    0.25E-03    0.26E-06
  PAW_PBE Ca_sv 06Sep2000               :
  PAW_PBE Si 05Jan2001                  :
  PAW_PBE O 08Apr2002                   :

 POSCAR: Ca12 Si12 O36
  positions in direct lattice
  velocities in cartesian coordinates

 METAGGA = SCAN     LMAXTAU =  6    LMIXTAU =  F

 ion  position               nearest neighbor table
   1  0.748  0.126  0.971-  25 2.34  37 2.35  33 2.35  38 2.42  29 2.43  34 2.43  14 3.11  18 3.11

   2  0.752  0.626  0.029-  26 2.34  38 2.35  34 2.35  37 2.42  30 2.43  33 2.43  13 3.11  17 3.11

[...]

  25  0.799  0.126  0.670-  21 1.61   1 2.34   9 2.42   5 2.44
  26  0.701  0.626  0.330-  22 1.61   2 2.34  10 2.42   6 2.44
  27  0.201  0.874  0.330-  23 1.61   3 2.34  11 2.42   7 2.44
  28  0.299  0.374  0.670-  24 1.61   4 2.34  12 2.42   8 2.44
  29  0.714  0.125  0.301-  21 1.60   1 2.43  10 2.50   6 2.51
  30  0.786  0.625  0.699-  22 1.60   2 2.43   9 2.50   5 2.51
  31  0.286  0.875  0.699-  23 1.60   3 2.43  12 2.50   8 2.51
  32  0.214  0.375  0.301-  24 1.60   4 2.43  11 2.50   7 2.51
  33  0.849  0.363  0.035-  13 1.61   9 2.31   1 2.35   2 2.43
  34  0.651  0.863  0.965-  14 1.61  10 2.31   2 2.35   1 2.43
  35  0.151  0.637  0.965-  15 1.61  11 2.31   3 2.35   4 2.43
  36  0.349  0.137  0.035-  16 1.61  12 2.31   4 2.35   3 2.43
  37  0.848  0.888  0.036-  17 1.62   5 2.32   1 2.35   2 2.42
  38  0.652  0.388  0.964-  18 1.62   6 2.32   2 2.35   1 2.42
  39  0.152  0.112  0.964-  19 1.62   7 2.32   3 2.35   4 2.42
  40  0.348  0.612  0.036-  20 1.62   8 2.32   4 2.35   3 2.42
  41  0.010  0.373  0.237-  13 1.59   7 2.27  11 2.31
  42  0.490  0.873  0.763-  14 1.59   8 2.27  12 2.31
  43  0.990  0.627  0.763-  15 1.59   5 2.27   9 2.31
  44  0.510  0.127  0.237-  16 1.59   6 2.27  10 2.31
  45  0.009  0.879  0.235-  17 1.59   7 2.30  11 2.36
  46  0.491  0.379  0.765-  18 1.59   8 2.30  12 2.36
  47  0.991  0.121  0.765-  19 1.59   5 2.30   9 2.36
  48  0.509  0.621  0.235-  20 1.59   6 2.30  10 2.36
  49  0.864  0.304  0.406-  13 1.65  21 1.67   9 2.41
  50  0.636  0.804  0.594-  14 1.65  22 1.67  10 2.41
  51  0.136  0.696  0.594-  15 1.65  23 1.67  11 2.41
  52  0.364  0.196  0.406-  16 1.65  24 1.67  12 2.41
  53  0.864  0.946  0.407-  17 1.65  21 1.66   5 2.42
  54  0.636  0.446  0.593-  18 1.65  22 1.66   6 2.42
  55  0.136  0.054  0.593-  19 1.65  23 1.66   7 2.42
  56  0.364  0.554  0.407-  20 1.65  24 1.66   8 2.42
  57  0.890  0.625  0.274-  13 1.64  17 1.64
  58  0.610  0.125  0.726-  14 1.64  18 1.64
  59  0.110  0.375  0.726-  15 1.64  19 1.64
  60  0.390  0.875  0.274-  16 1.64  20 1.64

IMPORTANT INFORMATION: All symmetrisations will be switched off!
NOSYMM: (Re-)initialisation of all symmetry stuff for point group C_1.

                                     Primitive cell

  volume of cell :     794.7987

  direct lattice vectors                    reciprocal lattice vectors
    15.343270345 -0.000000001 -1.433480393     0.065178707  0.000000000  0.000038031
    -0.000000002  7.321939280  0.000000008    -0.000000000  0.136575839 -0.000000000
    -0.004128295  0.000000014  7.075167908     0.013205679 -0.000000000  0.141347107

  length of vectors
    15.410087960  7.321939280  7.075169112     0.065178718  0.136575839  0.141962652

  position of ions in fractional coordinates (direct lattice)
     0.747647694  0.125671881  0.971479990
     0.752352113  0.625671794  0.028520372
     0.252352112  0.874328205  0.028520388
     0.247647695  0.374328121  0.971480008
     0.899567557  0.871903974  0.738265557
     0.600431880  0.371904401  0.261733951
     0.100431881  0.128095597  0.261733958
     0.399567559  0.628096028  0.738265565
     0.898312986  0.378026129  0.736589219
     0.601686128  0.878026027  0.263410094
     0.101686127  0.621973975  0.263410104
     0.398312986  0.121973871  0.736589230
     0.907362258  0.408785250  0.231150273
     0.592637870  0.908785442  0.768849575
     0.092637869  0.591214564  0.768849606
     0.407362257  0.091214744  0.231150305
     0.907481969  0.842332058  0.231024696
     0.592517982  0.342332026  0.768975242
     0.092517981  0.157667975  0.768975252
     0.407481968  0.657667941  0.231024707
     0.801203183  0.124671242  0.443663385
     0.698796835  0.624671347  0.556336264
     0.198796832  0.875328651  0.556336280
     0.301203180  0.375328759  0.443663402
     0.798822488  0.125968210  0.670165377
     0.701177292  0.625967315  0.329834277
     0.201177291  0.874032676  0.329834295
     0.298822486  0.374031797  0.670165397
     0.714044378  0.125016728  0.300710279
     0.785956084  0.625017648  0.699289034
     0.285956082  0.874982348  0.699289049
     0.214044376  0.374983274  0.300710294
     0.849353626  0.362791199  0.035234089
     0.650646344  0.862791332  0.964765927
     0.150646347  0.637208675  0.964765951
     0.349353629  0.137208796  0.035234115
     0.848121590  0.887656462  0.036175674
     0.651878209  0.387656423  0.963824616
     0.151878206  0.112343566  0.963824627
     0.348121586  0.612343550  0.036175683
     0.009578835  0.372791205  0.236905155
     0.490421292  0.872791861  0.763094693
     0.990421292  0.627208142  0.763094748
     0.509578835  0.127208791  0.236905211
     0.009107819  0.878971591  0.234843752
     0.490892223  0.378973481  0.765155904
     0.990892221  0.121026517  0.765155897
     0.509107817  0.621028411  0.234843747
     0.863961401  0.303812392  0.405964554
     0.636038970  0.803812740  0.594035534
     0.136038961  0.696187263  0.594035551
     0.363961394  0.196187604  0.405964572
     0.863607023  0.945514304  0.406907924
     0.636393728  0.445513137  0.593094291
     0.136393729  0.054486872  0.593094297
     0.363607024  0.554485686  0.406907931
     0.890310045  0.625154616  0.273951896
     0.609690219  0.125154852  0.726048144
     0.109690217  0.374845153  0.726048168
     0.390310042  0.874845379  0.273951922

  ion indices of the primitive-cell ions
   primitive index   ion index
                 1           1
                 2           2
                 3           3
                 4           4
                 5           5
                 6           6
                 7           7
                 8           8
                 9           9
                10          10
                11          11
                12          12
                13          13
                14          14
                15          15
                16          16
                17          17
                18          18
                19          19
                20          20
                21          21
                22          22
                23          23
                24          24
                25          25
                26          26
                27          27
                28          28
                29          29
                30          30
                31          31
                32          32
                33          33
                34          34
                35          35
                36          36
                37          37
                38          38
                39          39
                40          40
                41          41
                42          42
                43          43
                44          44
                45          45
                46          46
                47          47
                48          48
                49          49
                50          50
                51          51
                52          52
                53          53
                54          54
                55          55
                56          56
                57          57
                58          58
                59          59
                60          60

 KPOINTS: K-points file

Automatic generation of k-mesh.
Space group operators:
 irot       det(A)        alpha          n_x          n_y          n_z        tau_x        tau_y        tau_z
    1     1.000000     0.000001     1.000000     0.000000     0.000000     0.000000     0.000000     0.000000

 Subroutine IBZKPT returns following result:

 Found     76 irreducible k-points:

 Following reciprocal coordinates:
            Coordinates               Weight
  0.000000  0.000000  0.000000      1.000000
  0.166667 -0.000000 -0.000000      2.000000
  0.333333  0.000000  0.000000      2.000000
  0.500000 -0.000000 -0.000000      1.000000
  0.000000  0.200000  0.000000      2.000000
  0.166667  0.200000 -0.000000      2.000000
 -0.166667  0.200000 -0.000000      2.000000
  0.333333  0.200000  0.000000      2.000000
 -0.333333  0.200000 -0.000000      2.000000
[...]

 VOLUME and BASIS-vectors are now :
  energy-cutoff  :      520.00
  volume of cell :      794.80
      direct lattice vectors                 reciprocal lattice vectors
    15.343270345 -0.000000001 -1.433480393     0.065178707  0.000000000  0.000038031
    -0.000000002  7.321939280  0.000000008    -0.000000000  0.136575839 -0.000000000
    -0.004128295  0.000000014  7.075167908     0.013205679 -0.000000000  0.141347107

  length of vectors
    15.410087960  7.321939280  7.075169112     0.065178718  0.136575839  0.141962652

 FORCES acting on ions
    electron-ion (+dipol)            ewald-force                    non-local-force                 convergence-correction
   -.133E+02 0.104E+01 -.981E+01   0.144E+02 -.101E+01 0.100E+02   -.105E+01 -.400E-01 -.218E+00   0.703E-04 -.137E-04 0.909E-04
   0.133E+02 0.104E+01 0.981E+01   -.144E+02 -.101E+01 -.100E+02   0.105E+01 -.400E-01 0.218E+00   -.696E-04 -.122E-04 -.908E-04
   0.133E+02 -.104E+01 0.981E+01   -.144E+02 0.101E+01 -.100E+02   0.105E+01 0.400E-01 0.218E+00   -.670E-04 0.141E-04 -.907E-04
   -.133E+02 -.104E+01 -.981E+01   0.144E+02 0.101E+01 0.100E+02   -.105E+01 0.400E-01 -.218E+00   0.718E-04 0.129E-04 0.898E-04
   -.112E+03 0.430E+02 0.210E+02   0.112E+03 -.422E+02 -.198E+02   -.709E+00 -.860E+00 -.119E+01   -.437E-04 0.184E-03 0.383E-03
   0.112E+03 0.430E+02 -.210E+02   -.112E+03 -.422E+02 0.198E+02   0.708E+00 -.860E+00 0.119E+01   0.379E-04 0.194E-03 -.381E-03
   0.112E+03 -.430E+02 -.210E+02   -.112E+03 0.422E+02 0.198E+02   0.708E+00 0.860E+00 0.119E+01   0.338E-04 -.194E-03 -.381E-03
   -.112E+03 -.430E+02 0.210E+02   0.112E+03 0.422E+02 -.198E+02   -.709E+00 0.860E+00 -.119E+01   -.433E-04 -.186E-03 0.382E-03
   -.929E+02 -.436E+02 0.233E+02   0.927E+02 0.429E+02 -.221E+02   0.216E+00 0.767E+00 -.123E+01   -.143E-03 -.195E-03 0.378E-03
   0.929E+02 -.436E+02 -.233E+02   -.927E+02 0.429E+02 0.221E+02   -.216E+00 0.767E+00 0.123E+01   0.139E-03 -.197E-03 -.383E-03
   0.929E+02 0.436E+02 -.233E+02   -.927E+02 -.429E+02 0.221E+02   -.216E+00 -.767E+00 0.123E+01   0.139E-03 0.196E-03 -.380E-03
   -.929E+02 0.436E+02 0.233E+02   0.927E+02 -.429E+02 -.221E+02   0.216E+00 -.767E+00 -.123E+01   -.139E-03 0.196E-03 0.378E-03
   -.428E+02 0.212E+02 -.111E+02   0.454E+02 -.220E+02 0.703E+01   -.246E+01 0.778E+00 0.389E+01   0.495E-04 -.371E-04 -.160E-03
   0.428E+02 0.212E+02 0.111E+02   -.454E+02 -.220E+02 -.703E+01   0.246E+01 0.778E+00 -.390E+01   -.501E-04 -.371E-04 0.160E-03
   0.428E+02 -.212E+02 0.111E+02   -.454E+02 0.220E+02 -.703E+01   0.246E+01 -.778E+00 -.390E+01   -.510E-04 0.375E-04 0.160E-03
   -.428E+02 -.212E+02 -.111E+02   0.454E+02 0.220E+02 0.703E+01   -.246E+01 -.778E+00 0.389E+01   0.512E-04 0.375E-04 -.160E-03
   -.410E+02 -.206E+02 -.102E+02   0.447E+02 0.219E+02 0.598E+01   -.342E+01 -.121E+01 0.402E+01   0.825E-04 0.471E-04 -.167E-03
   0.410E+02 -.206E+02 0.102E+02   -.447E+02 0.219E+02 -.598E+01   0.342E+01 -.121E+01 -.402E+01   -.833E-04 0.473E-04 0.167E-03
   0.410E+02 0.206E+02 0.102E+02   -.447E+02 -.219E+02 -.598E+01   0.342E+01 0.121E+01 -.402E+01   -.840E-04 -.477E-04 0.167E-03
   -.410E+02 0.206E+02 -.102E+02   0.447E+02 -.219E+02 0.598E+01   -.342E+01 0.121E+01 0.402E+01   0.837E-04 -.472E-04 -.167E-03
   0.190E+02 0.134E+00 0.117E+02   -.221E+02 -.308E+00 -.941E+01   0.300E+01 0.162E+00 -.215E+01   -.138E-03 -.395E-05 0.617E-04
   -.189E+02 0.134E+00 -.117E+02   0.221E+02 -.308E+00 0.941E+01   -.300E+01 0.162E+00 0.215E+01   0.138E-03 -.359E-05 -.620E-04
   -.189E+02 -.134E+00 -.117E+02   0.221E+02 0.308E+00 0.941E+01   -.300E+01 -.162E+00 0.215E+01   0.139E-03 0.366E-05 -.618E-04
   0.190E+02 -.134E+00 0.117E+02   -.221E+02 0.308E+00 -.941E+01   0.300E+01 -.162E+00 -.215E+01   -.137E-03 0.363E-05 0.619E-04
   0.539E+02 0.290E+01 -.124E+02   -.580E+02 -.290E+01 0.378E+02   0.404E+01 -.305E-03 -.254E+02   0.981E-04 -.583E-05 0.574E-03
   -.539E+02 0.290E+01 0.124E+02   0.580E+02 -.290E+01 -.378E+02   -.404E+01 -.242E-03 0.254E+02   -.973E-04 -.492E-05 -.575E-03
   -.539E+02 -.290E+01 0.124E+02   0.580E+02 0.290E+01 -.378E+02   -.404E+01 0.244E-03 0.254E+02   -.963E-04 0.529E-05 -.575E-03
   0.539E+02 -.290E+01 -.124E+02   -.580E+02 0.290E+01 0.378E+02   0.404E+01 0.304E-03 -.254E+02   0.101E-03 0.543E-05 0.575E-03
   0.519E+02 -.237E+01 -.332E+02   -.744E+02 0.254E+01 0.201E+02   0.225E+02 -.189E+00 0.131E+02   -.421E-03 0.642E-05 -.396E-03
   -.519E+02 -.237E+01 0.332E+02   0.744E+02 0.254E+01 -.201E+02   -.225E+02 -.189E+00 -.131E+02   0.422E-03 0.820E-05 0.395E-03
   -.519E+02 0.237E+01 0.332E+02   0.744E+02 -.254E+01 -.201E+02   -.225E+02 0.189E+00 -.131E+02   0.424E-03 -.762E-05 0.395E-03
   0.519E+02 0.237E+01 -.332E+02   -.744E+02 -.254E+01 0.201E+02   0.225E+02 0.189E+00 0.131E+02   -.419E-03 -.735E-05 -.395E-03
   -.572E+02 0.350E+02 0.142E+02   0.441E+02 -.412E+02 -.335E+02   0.131E+02 0.618E+01 0.193E+02   -.310E-03 -.895E-04 -.431E-03
   0.572E+02 0.350E+02 -.142E+02   -.441E+02 -.412E+02 0.335E+02   -.131E+02 0.618E+01 -.193E+02   0.310E-03 -.905E-04 0.431E-03
   0.572E+02 -.350E+02 -.142E+02   -.441E+02 0.412E+02 0.335E+02   -.131E+02 -.618E+01 -.193E+02   0.310E-03 0.900E-04 0.432E-03
   -.572E+02 -.350E+02 0.142E+02   0.441E+02 0.412E+02 -.335E+02   0.131E+02 -.618E+01 0.193E+02   -.309E-03 0.901E-04 -.431E-03
   -.589E+02 -.351E+02 0.174E+02   0.457E+02 0.412E+02 -.364E+02   0.132E+02 -.610E+01 0.190E+02   -.306E-03 0.849E-04 -.437E-03
   0.589E+02 -.351E+02 -.174E+02   -.457E+02 0.412E+02 0.364E+02   -.132E+02 -.610E+01 -.190E+02   0.305E-03 0.856E-04 0.435E-03
   0.589E+02 0.351E+02 -.174E+02   -.457E+02 -.412E+02 0.364E+02   -.132E+02 0.610E+01 -.190E+02   0.305E-03 -.858E-04 0.435E-03
   -.589E+02 0.351E+02 0.174E+02   0.457E+02 -.412E+02 -.364E+02   0.132E+02 0.610E+01 0.190E+02   -.304E-03 -.854E-04 -.437E-03
   -.155E+02 0.315E+02 0.301E+01   0.405E+02 -.365E+02 -.540E+01   -.250E+02 0.505E+01 0.241E+01   0.478E-03 -.890E-04 -.117E-03
   0.155E+02 0.315E+02 -.301E+01   -.405E+02 -.365E+02 0.540E+01   0.250E+02 0.505E+01 -.241E+01   -.480E-03 -.883E-04 0.118E-03
   0.155E+02 -.315E+02 -.301E+01   -.405E+02 0.365E+02 0.540E+01   0.250E+02 -.505E+01 -.241E+01   -.483E-03 0.895E-04 0.117E-03
   -.155E+02 -.315E+02 0.301E+01   0.405E+02 0.365E+02 -.540E+01   -.250E+02 -.505E+01 0.241E+01   0.481E-03 0.890E-04 -.118E-03
   -.299E+01 -.308E+02 0.210E+02   0.295E+02 0.359E+02 -.239E+02   -.265E+02 -.514E+01 0.284E+01   0.496E-03 0.943E-04 -.170E-03
   0.299E+01 -.308E+02 -.210E+02   -.295E+02 0.359E+02 0.239E+02   0.265E+02 -.514E+01 -.284E+01   -.496E-03 0.932E-04 0.170E-03
   0.299E+01 0.308E+02 -.210E+02   -.295E+02 -.359E+02 0.239E+02   0.265E+02 0.514E+01 -.284E+01   -.498E-03 -.940E-04 0.170E-03
   -.299E+01 0.308E+02 0.210E+02   0.295E+02 -.359E+02 -.239E+02   -.265E+02 0.514E+01 0.284E+01   0.498E-03 -.938E-04 -.171E-03
   -.495E+02 -.268E+02 -.681E+01   0.530E+02 0.343E+02 0.204E+02   -.343E+01 -.749E+01 -.136E+02   0.795E-05 0.796E-04 0.155E-03
   0.495E+02 -.268E+02 0.681E+01   -.530E+02 0.343E+02 -.204E+02   0.343E+01 -.749E+01 0.136E+02   -.726E-05 0.779E-04 -.155E-03
   0.495E+02 0.268E+02 0.681E+01   -.530E+02 -.343E+02 -.204E+02   0.343E+01 0.749E+01 0.136E+02   -.813E-05 -.779E-04 -.155E-03
   -.495E+02 0.268E+02 -.681E+01   0.530E+02 -.343E+02 0.204E+02   -.343E+01 0.749E+01 -.136E+02   0.943E-05 -.784E-04 0.155E-03
   -.504E+02 0.291E+02 -.104E+02   0.540E+02 -.373E+02 0.240E+02   -.367E+01 0.825E+01 -.136E+02   0.193E-04 -.944E-04 0.160E-03
   0.504E+02 0.291E+02 0.104E+02   -.540E+02 -.373E+02 -.240E+02   0.367E+01 0.825E+01 0.136E+02   -.208E-04 -.939E-04 -.160E-03
   0.504E+02 -.291E+02 0.104E+02   -.540E+02 0.373E+02 -.240E+02   0.367E+01 -.825E+01 0.136E+02   -.211E-04 0.934E-04 -.159E-03
   -.504E+02 -.291E+02 -.104E+02   0.540E+02 0.373E+02 0.240E+02   -.367E+01 -.825E+01 -.136E+02   0.213E-04 0.935E-04 0.160E-03
   -.453E+02 -.682E+00 -.831E+02   0.365E+02 0.119E+01 0.969E+02   0.880E+01 -.496E+00 -.139E+02   -.135E-03 0.193E-04 0.367E-04
   0.453E+02 -.682E+00 0.831E+02   -.365E+02 0.119E+01 -.969E+02   -.880E+01 -.496E+00 0.139E+02   0.134E-03 0.200E-04 -.358E-04
   0.453E+02 0.682E+00 0.831E+02   -.365E+02 -.119E+01 -.969E+02   -.880E+01 0.496E+00 0.139E+02   0.134E-03 -.200E-04 -.357E-04
   -.453E+02 0.682E+00 -.831E+02   0.365E+02 -.119E+01 0.969E+02   0.880E+01 0.496E+00 -.139E+02   -.134E-03 -.196E-04 0.365E-04
   0.333E-02 0.142E-05 -.126E-02   -.313E-12 -.453E-13 0.114E-12   -.325E-02 -.435E-06 0.128E-02   -.494E-05 -.133E-05 -.423E-05

 POSITION                                       TOTAL-FORCE (eV/Angst)
     11.46735      0.92016      5.80165        -0.002275     -0.012559     -0.002707
     11.54342      4.58113     -0.87670         0.002262     -0.012567      0.002682
      3.87179      6.40178     -0.15996         0.002262      0.012567      0.002681
      3.79571      2.74081      6.51839        -0.002276      0.012559     -0.002707
     13.79926      6.38403      3.93384         0.027417     -0.005920      0.007353
      9.21151      2.72306      0.99110        -0.027427     -0.005952     -0.007329
      1.53987      0.93791      1.70784        -0.027428      0.005953     -0.007329
      6.12763      4.59888      4.65058         0.027417      0.005920      0.007353
     13.78002      2.76788      3.92378        -0.007500     -0.003610     -0.007480
      9.23075      6.42885      1.00117         0.007530     -0.003608      0.007483
      1.55911      4.55406      1.71791         0.007530      0.003607      0.007483
      6.10838      0.89309      4.64052        -0.007500      0.003610     -0.007480
     13.92095      2.99310      0.33474         0.005059     -0.003246     -0.017207
      9.08983      6.65407      4.59021        -0.005065     -0.003200      0.017213
      1.41819      4.32884      5.30695        -0.005065      0.003199      0.017212
      6.24931      0.66787      1.05148         0.005059      0.003246     -0.017207
     13.92279      6.16750      0.33368         0.004959      0.005074     -0.005863
      9.08799      2.50653      4.59127        -0.005015      0.004983      0.006033
      1.41635      1.15444      5.30801        -0.005015     -0.004983      0.006033
      6.25115      4.81540      1.05042         0.004960     -0.005074     -0.005863
     12.29125      0.91284      1.99048        -0.005216     -0.003452     -0.002084
     10.71953      4.57381      2.93446         0.005182     -0.003549      0.002171
      3.04790      6.40910      3.65120         0.005182      0.003549      0.002171
      4.61961      2.74813      2.70722        -0.005216      0.003451     -0.002084
     12.25378      0.92233      3.59644        -0.006524     -0.005765      0.005672
     10.75699      4.58329      1.32851         0.006491     -0.005766     -0.005633
      3.08536      6.39961      2.04525         0.006491      0.005767     -0.005633
      4.58215      2.73864      4.31318        -0.006525      0.005765      0.005672
     10.95453      0.91536      1.10401        -0.005656     -0.015631     -0.008072
     12.05625      4.57634      3.82093         0.005646     -0.015634      0.008067
      4.38461      6.40657      4.53768         0.005645      0.015634      0.008067
      3.28290      2.74560      1.82075        -0.005656      0.015631     -0.008072
     13.03172      2.65634     -0.96824        -0.007580     -0.010728     -0.003907
      9.97906      6.31731      5.89319         0.007579     -0.010743      0.003923
      2.30742      4.66560      6.60993         0.007579      0.010743      0.003923
      5.36008      1.00463     -0.25150        -0.007580      0.010728     -0.003908
     13.01281      6.49937     -0.95982        -0.003006     -0.002046     -0.005689
      9.99796      2.83840      5.88477         0.003017     -0.002050      0.005766
      2.32633      0.82257      6.60151         0.003017      0.002050      0.005765
      5.34117      4.48354     -0.24308        -0.003006      0.002045     -0.005689
      0.14599      2.72955      1.66241         0.004471     -0.014768      0.014314
      7.52152      6.39053      4.69601        -0.004469     -0.014748     -0.014317
     15.19315      4.59238      3.97927        -0.004469      0.014748     -0.014318
      7.81763      0.93142      0.94567         0.004471      0.014768      0.014314
      0.13877      6.43578      1.64850         0.013574     -0.005127      0.011322
      7.52873      2.77482      4.70992        -0.013566     -0.005166     -0.011321
     15.20037      0.88615      3.99318        -0.013566      0.005167     -0.011320
      7.81041      4.54713      0.93176         0.013574      0.005127      0.011323
     13.25432      2.22450      1.63380         0.000763      0.008834      0.009510
      9.75647      5.88547      3.29115        -0.000769      0.008803     -0.009540
      2.08483      5.09744      4.00789        -0.000768     -0.008802     -0.009540
      5.58268      1.43647      2.35054         0.000763     -0.008834      0.009511
     13.24888      6.92300      1.64098        -0.010063     -0.007143     -0.006727
      9.76191      3.26202      3.28398         0.010212     -0.006849      0.006355
      2.09028      0.39895      4.00072         0.010212      0.006849      0.006355
      5.57724      4.05991      2.35772        -0.010063      0.007143     -0.006727
     13.65914      4.57734      0.66201        -0.002758      0.009092     -0.010167
      9.35164      0.91638      4.26293         0.002728      0.009075      0.010182
      1.68001      2.74459      4.97967         0.002728     -0.009076      0.010182
      5.98750      6.40556      1.37875        -0.002758     -0.009091     -0.010167
    total drift:                                0.000067     -0.000000      0.000019

  FREE ENERGIE OF THE ION-ELECTRON SYSTEM (eV)
  free  energy   TOTEN  =      -657.79926433 eV

  energy  without entropy=     -657.79926433  energy(sigma->0) =     -657.79926433

 reached required accuracy - stopping structural energy minimisation

 total charge

[...]

 magnetization (x)

# of ion       s       p       d       tot
    1        0.000  -0.000   0.000   0.000
    2        0.000  -0.000   0.000   0.000
    3        0.000  -0.000   0.000   0.000
    4        0.000  -0.000   0.000   0.000
    5        0.000  -0.000   0.000   0.000
    6       -0.000  -0.000   0.000  -0.000
    7        0.000  -0.000   0.000   0.000
    8        0.000  -0.000   0.000   0.000
    9       -0.000  -0.000   0.000   0.000
   10       -0.000  -0.000   0.000  -0.000
   11        0.000  -0.000   0.000   0.000
   12       -0.000  -0.000   0.000  -0.000
   13       -0.000  -0.000   0.000  -0.000
   14        0.000  -0.000   0.000  -0.000
   15        0.000  -0.000   0.000  -0.000
   16        0.000   0.000   0.000   0.000
   17        0.000  -0.000   0.000  -0.000
   18        0.000   0.000   0.000   0.000
   19        0.000   0.000   0.000   0.000
   20        0.000   0.000   0.000   0.000
   21        0.000  -0.000   0.000   0.000
   22        0.000  -0.000   0.000   0.000
   23        0.000   0.000   0.000   0.000
   24        0.000  -0.000   0.000   0.000
   25       -0.000  -0.000   0.000  -0.000
   26       -0.000  -0.000   0.000  -0.000
   27       -0.000  -0.000   0.000  -0.000
   28       -0.000  -0.000   0.000  -0.000
   29       -0.000   0.000   0.000   0.000
   30       -0.000  -0.000   0.000  -0.000
   31       -0.000  -0.000   0.000  -0.000
   32       -0.000  -0.000   0.000  -0.000
   33       -0.000  -0.000   0.000  -0.000
   34       -0.000  -0.000   0.000  -0.000
   35       -0.000  -0.000   0.000  -0.000
   36       -0.000  -0.000   0.000  -0.000
   37       -0.000  -0.000   0.000  -0.000
   38       -0.000  -0.000   0.000  -0.000
   39       -0.000  -0.000   0.000  -0.000
   40       -0.000  -0.000   0.000  -0.000
   41       -0.000  -0.000   0.000  -0.000
   42       -0.000  -0.000   0.000  -0.000
   43       -0.000   0.000   0.000   0.000
   44       -0.000  -0.000   0.000  -0.000
   45       -0.000  -0.000   0.000  -0.000
   46       -0.000  -0.000   0.000  -0.000
   47       -0.000  -0.000   0.000  -0.000
   48       -0.000  -0.000   0.000  -0.000
   49        0.000   0.000   0.000   0.000
   50        0.000  -0.000   0.000  -0.000
   51        0.000   0.000   0.000   0.000
   52        0.000   0.000   0.000   0.000
   53        0.000   0.000   0.000   0.000
   54        0.000   0.000   0.000   0.000
   55        0.000  -0.000   0.000   0.000
   56        0.000   0.000   0.000   0.000
   57        0.000   0.000   0.000   0.000
   58        0.000   0.000   0.000   0.000
   59        0.000   0.000   0.000   0.000
   60        0.000   0.000   0.000   0.000
tot         -0.000  -0.000   0.000  -0.000