 vasp.6.1.2 22Jul20 (build Mar 19 2021 09:51:12) complex

 executed on             LinuxIFC date 2021.07.25  18:03:54

 INCAR:
 POTCAR:    PAW_PBE Ca_sv 06Sep2000
 POTCAR:    PAW_PBE Si 05Jan2001
 POTCAR:    PAW_PBE Ni_pv 06Sep2000
 POTCAR:    PAW_PBE O 08Apr2002
|           W    W    AA    RRRRR   N    N  II  N    N   GGGG   !!!           |
|           W    W   A  A   R    R  NN   N  II  NN   N  G    G  !!!           |
|           W    W  A    A  R    R  N N  N  II  N N  N  G       !!!           |
|           W WW W  AAAAAA  RRRRR   N  N N  II  N  N N  G  GGG   !            |
|           WW  WW  A    A  R   R   N   NN  II  N   NN  G    G                |
|           W    W  A    A  R    R  N    N  II  N    N   GGGG   !!!           |
|     The value NCORE = 16 specified in the INCAR file was overwritten,       |
|     because it was not compatible with the 12 processes available:          |
|     NCORE = 12                                                              |
|     was used instead, please check that this makes sense for your           |
|     machine.                                                                |

 POTCAR:    PAW_PBE Ca_sv 06Sep2000
   VRHFIN =Ca: 3s3p4s

   TITEL  = PAW_PBE Ca_sv 06Sep2000
   POMASS =   40.078; ZVAL   =   10.000    mass and valenz
   ENMAX  =  266.622; ENMIN  =  199.967 eV

 POTCAR:    PAW_PBE Si 05Jan2001
   VRHFIN =Si: s2p2

   TITEL  = PAW_PBE Si 05Jan2001
   POMASS =   28.085; ZVAL   =    4.000    mass and valenz
   ENMAX  =  245.345; ENMIN  =  184.009 eV

 POTCAR:    PAW_PBE Ni_pv 06Sep2000
   VRHFIN =Ni:

   TITEL  = PAW_PBE Ni_pv 06Sep2000
   POMASS =   58.690; ZVAL   =   16.000    mass and valenz
   ENMAX  =  367.986; ENMIN  =  275.989 eV

 POTCAR:    PAW_PBE O 08Apr2002
   VRHFIN =O: s2p4

   TITEL  = PAW_PBE O 08Apr2002
   POMASS =   16.000; ZVAL   =    6.000    mass and valenz
   ENMAX  =  400.000; ENMIN  =  300.000 eV

 Optimization of the real space projectors (new method)

 maximal supplied QI-value         = 16.25
 optimisation between [QCUT,QGAM] = [ 11.54, 23.24] = [ 37.28,151.24] Ry
 Optimized for a Real-space Cutoff    1.58 Angstroem

   l    n(q)    QCUT    max X(q) W(low)/X(q) W(high)/X(q)  e(spline)
   0     11    11.539    11.817    0.25E-04    0.22E-05    0.26E-07
   0     11    11.539     8.461    0.39E-04    0.49E-05    0.55E-07
   1     11    11.539     3.957    0.21E-05    0.44E-05    0.32E-07
   1     11    11.539     4.314    0.56E-04    0.44E-04    0.19E-06
   2     10    11.539    14.565    0.25E-03    0.21E-04    0.75E-06
   2     10    11.539    14.552    0.23E-03    0.22E-04    0.72E-06
 Optimization of the real space projectors (new method)

[...]

   l    n(q)    QCUT    max X(q) W(low)/X(q) W(high)/X(q)  e(spline)
   1      9    11.527     2.836    0.16E-04    0.30E-04    0.95E-07
   1      9    11.527     4.023    0.73E-04    0.81E-04    0.21E-06
   2      9    11.527    73.368    0.15E-03    0.29E-03    0.28E-06
   2      9    11.527    69.010    0.15E-03    0.29E-03    0.29E-06
   0      9    11.527    54.797    0.43E-04    0.28E-04    0.85E-07
   0      9    11.527    24.266    0.33E-04    0.24E-04    0.75E-07
 Optimization of the real space projectors (new method)

 maximal supplied QI-value         = 24.76
 optimisation between [QCUT,QGAM] = [ 11.64, 23.27] = [ 37.91,151.63] Ry
 Optimized for a Real-space Cutoff    1.14 Angstroem

   l    n(q)    QCUT    max X(q) W(low)/X(q) W(high)/X(q)  e(spline)
   0      8    11.635    20.381    0.10E-03    0.33E-03    0.24E-06
   0      8    11.635    15.268    0.11E-03    0.35E-03    0.26E-06
   1      7    11.635     5.964    0.24E-03    0.31E-03    0.30E-06
   1      7    11.635     5.382    0.22E-03    0.25E-03    0.26E-06
  PAW_PBE Ca_sv 06Sep2000               :
  PAW_PBE Si 05Jan2001                  :
  PAW_PBE Ni_pv 06Sep2000               :
  PAW_PBE O 08Apr2002                   :

 POSCAR: Ca2 Si4 Ni2 O12
  positions in direct lattice
  velocities in cartesian coordinates

 METAGGA = SCAN     LMAXTAU =  6    LMIXTAU =  F

 ion  position               nearest neighbor table
   1  0.750  0.702  0.298-  16 2.34  15 2.34   9 2.34  10 2.34   6 3.10   5 3.10
   2  0.250  0.298  0.702-  13 2.34  14 2.34  12 2.34  11 2.34   3 3.10   4 3.10
   3  0.727  0.620  0.806-  13 1.59   9 1.60  17 1.66  20 1.68   6 3.09   6 3.09   2 3.10
   4  0.773  0.194  0.380-  14 1.59  10 1.60  18 1.66  19 1.68   5 3.09   5 3.09   2 3.10
   5  0.273  0.380  0.194-  15 1.59  11 1.60  19 1.66  18 1.68   4 3.09   4 3.09   1 3.10
   6  0.227  0.806  0.620-  16 1.59  12 1.60  20 1.66  17 1.68   3 3.09   3 3.09   1 3.10
   7  0.750  0.091  0.909-  14 2.05  13 2.05  11 2.06  12 2.06   9 2.10  10 2.10
   8  0.250  0.909  0.091-  15 2.05  16 2.05  10 2.06   9 2.06  12 2.10  11 2.10
   9  0.643  0.798  0.971-   3 1.60   8 2.06   7 2.10   1 2.34
  10  0.858  0.029  0.202-   4 1.60   8 2.06   7 2.10   1 2.34
  11  0.358  0.202  0.029-   5 1.60   7 2.06   8 2.10   2 2.34
  12  0.143  0.971  0.798-   6 1.60   7 2.06   8 2.10   2 2.34
  13  0.819  0.388  0.891-   3 1.59   7 2.05   2 2.34
  14  0.681  0.109  0.612-   4 1.59   7 2.05   2 2.34
  15  0.181  0.612  0.109-   5 1.59   8 2.05   1 2.34
  16  0.319  0.891  0.388-   6 1.59   8 2.05   1 2.34
  17  0.492  0.630  0.667-   3 1.66   6 1.68
  18  0.008  0.333  0.370-   4 1.66   5 1.68
  19  0.508  0.370  0.333-   5 1.66   4 1.68
  20  0.992  0.667  0.630-   6 1.66   3 1.68

IMPORTANT INFORMATION: All symmetrisations will be switched off!
NOSYMM: (Re-)initialisation of all symmetry stuff for point group C_1.

                                     Primitive cell

  volume of cell :     217.1997

  direct lattice vectors                    reciprocal lattice vectors
     0.004865579 -0.000000004  5.228212906     0.054091796 -0.000000001  0.191219606
    -4.682672480  4.434737659  1.324624446    -0.106748531  0.112746241  0.000099344
    -4.682672564 -4.434737752  1.324624447    -0.106748528 -0.112746239  0.000099344

  length of vectors
     5.228215170  6.583991919  6.583992041     0.198723074  0.155264205  0.155264202

  position of ions in fractional coordinates (direct lattice)
     0.749997303  0.701742762  0.298252100
     0.249997300  0.298252106  0.701742756
     0.726787578  0.619942819  0.806295121
     0.773238103  0.193694631  0.380062480
     0.273238103  0.380062467  0.193694628
     0.226787581  0.806295124  0.619942808
     0.749857470  0.091222091  0.908818975
     0.249857493  0.908818974  0.091222091
     0.642520474  0.797926087  0.970608627
     0.857545933  0.029380581  0.202079539
     0.357545901  0.202079538  0.029380594
     0.142520445  0.970608642  0.797926084
     0.819062399  0.388420909  0.891212023
     0.680966842  0.108790013  0.611584667
     0.180966859  0.611584655  0.108790027
     0.319062405  0.891212027  0.388420899
     0.491565044  0.629548259  0.667352820
     0.008458862  0.332640615  0.370424887
     0.508458862  0.370424878  0.332640618
     0.991565042  0.667352824  0.629548255

  ion indices of the primitive-cell ions
   primitive index   ion index
                 1           1
                 2           2
                 3           3
                 4           4
                 5           5
                 6           6
                 7           7
                 8           8
                 9           9
                10          10
                11          11
                12          12
                13          13
                14          14
                15          15
                16          16
                17          17
                18          18
                19          19
                20          20

 KPOINTS: K-points file

Automatic generation of k-mesh.
Space group operators:
 irot       det(A)        alpha          n_x          n_y          n_z        tau_x        tau_y        tau_z
    1     1.000000     0.000000     1.000000     0.000000     0.000000     0.000000     0.000000     0.000000

 Subroutine IBZKPT returns following result:

 Found     88 irreducible k-points:

 Following reciprocal coordinates:
            Coordinates               Weight
  0.000000  0.000000  0.000000      1.000000
  0.142857  0.000000  0.000000      2.000000
  0.285714  0.000000  0.000000      2.000000
  0.428571  0.000000  0.000000      2.000000
 -0.000000  0.200000 -0.000000      2.000000
  0.000000 -0.000000 -0.200000      2.000000
  0.142857  0.200000 -0.000000      2.000000
 -0.142857 -0.000000 -0.200000      2.000000
  0.285714  0.200000 -0.000000      2.000000
 -0.285714 -0.000000 -0.200000      2.000000
  0.428571  0.200000 -0.000000      2.000000
 -0.428571 -0.000000 -0.200000      2.000000
 -0.428571  0.200000 -0.000000      2.000000
  0.428571 -0.000000 -0.200000      2.000000
 -0.285714  0.200000  0.000000      2.000000
  0.285714 -0.000000 -0.200000      2.000000
 -0.142857  0.200000  0.000000      2.000000
  0.142857  0.000000 -0.200000      2.000000
 -0.000000  0.400000  0.000000      2.000000
  0.000000  0.000000 -0.400000      2.000000
  0.142857  0.400000  0.000000      2.000000
 -0.142857 -0.000000 -0.400000      2.000000
  0.285714  0.400000  0.000000      2.000000
 -0.285714  0.000000 -0.400000      2.000000
  0.428571  0.400000 -0.000000      2.000000
 -0.428571 -0.000000 -0.400000      2.000000
 -0.428571  0.400000 -0.000000      2.000000
  0.428571  0.000000 -0.400000      2.000000
 -0.285714  0.400000 -0.000000      2.000000
  0.285714 -0.000000 -0.400000      2.000000
 -0.142857  0.400000 -0.000000      2.000000
  0.142857  0.000000 -0.400000      2.000000
 -0.000000  0.200000  0.200000      2.000000
  0.142857  0.200000  0.200000      2.000000
  0.285714  0.200000  0.200000      2.000000
  0.428571  0.200000  0.200000      2.000000
 -0.428571  0.200000  0.200000      2.000000
 -0.285714  0.200000  0.200000      2.000000
 -0.142857  0.200000  0.200000      2.000000
 -0.000000  0.400000  0.200000      2.000000
 -0.000000 -0.200000 -0.400000      2.000000
  0.142857  0.400000  0.200000      2.000000
 -0.142857 -0.200000 -0.400000      2.000000
  0.285714  0.400000  0.200000      2.000000
 -0.285714 -0.200000 -0.400000      2.000000
  0.428571  0.400000  0.200000      2.000000
 -0.428571 -0.200000 -0.400000      2.000000
 -0.428571  0.400000  0.200000      2.000000
  0.428571 -0.200000 -0.400000      2.000000
 -0.285714  0.400000  0.200000      2.000000
  0.285714 -0.200000 -0.400000      2.000000
 -0.142857  0.400000  0.200000      2.000000
  0.142857 -0.200000 -0.400000      2.000000
  0.000000 -0.400000  0.200000      2.000000
  0.000000 -0.200000  0.400000      2.000000
  0.142857 -0.400000  0.200000      2.000000
 -0.142857 -0.200000  0.400000      2.000000
  0.285714 -0.400000  0.200000      2.000000
 -0.285714 -0.200000  0.400000      2.000000
  0.428571 -0.400000  0.200000      2.000000
[...]
 -0.428571 -0.200000  0.200000      2.000000
  0.000000  0.400000  0.400000      2.000000
  0.142857  0.400000  0.400000      2.000000
  0.285714  0.400000  0.400000      2.000000
  0.428571  0.400000  0.400000      2.000000
 -0.428571  0.400000  0.400000      2.000000
 -0.285714  0.400000  0.400000      2.000000
[...]
  o =  0.9494  v = -0.0016 -0.0022  0.7747 -0.3875 -0.4997  0.0000  0.0000  0.0000  0.0000  0.0000      0.0000  0.0000  0.0000  0.0000  0.0000  0.0000  0.0000  0.0000  0.0000  0.0000
  o =  0.9499  v =  0.5384  0.8427  0.0018 -0.0009 -0.0019  0.0000  0.0000  0.0000  0.0000  0.0000      0.0000  0.0000  0.0000  0.0000  0.0000  0.0000  0.0000  0.0000  0.0000  0.0000
  o =  0.9507  v =  0.0004  0.0005  0.2864 -0.4895  0.8236  0.0000  0.0000  0.0000  0.0000  0.0000      0.0000  0.0000  0.0000  0.0000  0.0000  0.0000  0.0000  0.0000  0.0000  0.0000
  o =  0.9813  v = -0.8427  0.5384 -0.0031 -0.0042 -0.0013  0.0000  0.0000  0.0000  0.0000  0.0000      0.0000  0.0000  0.0000  0.0000  0.0000  0.0000  0.0000  0.0000  0.0000  0.0000
  o =  0.9831  v =  0.0045 -0.0031 -0.5637 -0.7812 -0.2683  0.0000  0.0000  0.0000  0.0000  0.0000      0.0000  0.0000  0.0000  0.0000  0.0000  0.0000  0.0000  0.0000  0.0000  0.0000

 eigenvalue-minimisations  : 18987
 total energy-change (2. order) : 0.9131927E-06  (-0.1463908E-06)
 number of electron     140.0000056 magnetization       4.0000000
 augmentation part       31.6624705 magnetization       2.8525353

 Free energy of the ion-electron system (eV)
  alpha Z        PSCENC =       500.24341725
  Ewald energy   TEWEN  =     -9240.02021635
  -Hartree energ DENC   =     -5100.95329004
  -exchange      EXHF   =         0.00000000
  -V(xc)+E(xc)   XCENC  =       716.29795330
  PAW double counting   =     22165.53950929   -22460.95809791
  entropy T*S    EENTRO =        -0.00000000
  eigenvalues    EBANDS =     -1416.79016630
  atomic energy  EATOM  =     14614.86962263
  Solvation  Ediel_sol  =         0.00000000
  free energy    TOTEN  =      -221.77126812 eV

  energy without entropy =     -221.77126812  energy(sigma->0) =     -221.77126812

 average (electrostatic) potential at core
  the test charge radii are     1.1137  0.9892  0.8614  0.7215
  (the norm of the test charge is              1.0000)
       1 -47.1427       2 -47.1427       3 -87.4849       4 -87.4861       5 -87.4861
       6 -87.4849       7 -88.2873       8 -88.2873       9 -73.8714      10 -73.8739
      11 -73.8739      12 -73.8714      13 -73.3421      14 -73.3433      15 -73.3433
      16 -73.3421      17 -75.0730      18 -75.0737      19 -75.0737      20 -75.0730

 E-fermi :   4.0412     XC(G=0): -11.5000     alpha+bet :-12.7984

[...]

 k-point     1 :       0.0000    0.0000    0.0000
  band No.  band energies     occupation
      1     -62.5178      1.00000
      2     -62.5174      1.00000
      3     -62.5168      1.00000
      4     -62.5154      1.00000
      5     -62.4974      1.00000
      6     -62.4929      1.00000
      7     -36.1094      1.00000
      8     -36.1073      1.00000
      9     -17.8044      1.00000
     10     -17.6135      1.00000
     11     -16.8194      1.00000
     12     -16.7160      1.00000
     13     -16.5803      1.00000
     14     -16.5557      1.00000
     15     -16.5104      1.00000
     16     -16.3665      1.00000
     17     -16.1745      1.00000
     18     -16.0504      1.00000
     19     -15.2562      1.00000
     20     -15.2415      1.00000
     21     -15.0570      1.00000
     22     -14.9498      1.00000
     23     -14.6716      1.00000
     24     -14.6277      1.00000
     25     -14.3406      1.00000
     26     -14.2850      1.00000
     27      -5.5920      1.00000
     28      -5.5212      1.00000
     29      -3.4449      1.00000
     30      -2.7988      1.00000
     31      -2.5822      1.00000
     32      -2.2929      1.00000
     33      -2.2415      1.00000
     34      -2.1894      1.00000
     35      -1.8021      1.00000
     36      -1.5266      1.00000
     37      -1.3929      1.00000
     38      -1.3703      1.00000
     39      -1.0734      1.00000
     40      -0.9268      1.00000
     41      -0.8530      1.00000
     42      -0.6689      1.00000
     43      -0.1969      1.00000
     44      -0.1796      1.00000
     45       0.1456      1.00000
     46       0.3730      1.00000
     47       0.5800      1.00000
     48       0.7069      1.00000
     49       0.7690      1.00000
     50       0.8452      1.00000
     51       0.8908      1.00000
     52       1.0652      1.00000
     53       1.0847      1.00000
     54       1.0889      1.00000
     55       1.2076      1.00000
     56       1.3821      1.00000
     57       1.6283      1.00000
     58       1.6599      1.00000
     59       1.8166      1.00000
     60       1.8595      1.00000
[...]
     73       8.7048      0.00000
     74      10.7386      0.00000
     75      10.7876      0.00000
     76      11.0304      0.00000
     77      11.0418      0.00000
     78      11.2460      0.00000
     79      11.4191      0.00000
     80      11.7785      0.00000
     81      11.7955      0.00000
     82      12.4929      0.00000
     83      12.4957      0.00000
     84      12.7828      0.00000
     85      12.9229      0.00000
     86      13.1364      0.00000
     87      13.3532      0.00000

[...]

 spin component 2

[...]

 k-point    88 :      -0.4286   -0.4000    0.4000
  band No.  band energies     occupation
      1     -59.1983      1.00000
      2     -59.1971      1.00000
      3     -59.1206      1.00000
      4     -59.1204      1.00000
      5     -59.1051      1.00000
      6     -59.1047      1.00000
      7     -36.1091      1.00000
      8     -36.1088      1.00000
      9     -17.5072      1.00000
     10     -17.3323      1.00000
     11     -17.2949      1.00000
     12     -17.0340      1.00000
     13     -16.5518      1.00000
     14     -16.5354      1.00000
     15     -16.2630      1.00000
     16     -16.2425      1.00000
     17     -16.1569      1.00000
     18     -16.1210      1.00000
     19     -15.1210      1.00000
     20     -15.1109      1.00000
     21     -15.0195      1.00000
     22     -15.0089      1.00000
     23     -14.5796      1.00000
     24     -14.4526      1.00000
     25     -14.3503      1.00000
     26     -14.2790      1.00000
     27      -4.5352      1.00000
     28      -4.4131      1.00000
     29      -3.9206      1.00000
     30      -3.7524      1.00000
     31      -2.2118      1.00000
     32      -1.9446      1.00000
     33      -1.8754      1.00000
     34      -1.8549      1.00000
     35      -1.3235      1.00000
     36      -1.2716      1.00000
     37      -1.0704      1.00000
     38      -0.9988      1.00000
     39      -0.7721      1.00000
     40      -0.6244      1.00000
     41      -0.3450      1.00000
     42      -0.2897      1.00000
     43       0.0465      1.00000
     44       0.1268      1.00000
     45       0.4339      1.00000
     46       0.5013      1.00000
     47       0.5816      1.00000
     48       0.7879      1.00000
     49       1.0909      1.00000
     50       1.1330      1.00000
     51       1.2005      1.00000
     52       1.2327      1.00000
     53       1.4829      1.00000
     54       1.5436      1.00000
     55       1.6991      1.00000
     56       1.7872      1.00000
     57       1.9440      1.00000
     58       1.9680      1.00000
     59       2.2722      1.00000
     60       2.2954      1.00000
[...]
     73      10.6515      0.00000
     74      10.6871      0.00000
     75      10.9476      0.00000
     76      10.9698      0.00000
     77      11.4561      0.00000
     78      11.5089      0.00000
     79      11.7467      0.00000
     80      11.9372      0.00000
     81      12.0802      0.00000
     82      12.2529      0.00000
     83      12.3195      0.00000
     84      12.3977      0.00000
     85      12.7012      0.00000
     86      12.7934      0.00000
     87      13.4619      0.00000

 soft charge-density along one line, spin component           1
         0         1         2         3         4         5         6         7         8         9
 total charge-density along one line

 soft charge-density along one line, spin component           2
         0         1         2         3         4         5         6         7         8         9
 total charge-density along one line

------------------------ aborting loop because EDIFF is reached ----------------------------------------

 total charge

# of ion       s       p       d       tot
    1        2.024   5.871   0.232   8.127
    2        2.024   5.871   0.232   8.127
    3        0.654   1.005   0.000   1.659
    4        0.654   1.005   0.000   1.659
    5        0.654   1.005   0.000   1.659
    6        0.654   1.005   0.000   1.659
    7        0.200   6.172   7.841  14.213
    8        0.200   6.172   7.841  14.213
    9        1.564   3.631   0.000   5.195
   10        1.564   3.631   0.000   5.195
   11        1.564   3.631   0.000   5.195
   12        1.564   3.631   0.000   5.195
   13        1.565   3.614   0.000   5.179
   14        1.565   3.614   0.000   5.179
   15        1.565   3.614   0.000   5.179
   16        1.565   3.614   0.000   5.179
   17        1.561   3.691   0.000   5.252
   18        1.561   3.691   0.000   5.252
   19        1.561   3.691   0.000   5.252
   20        1.561   3.691   0.000   5.252
tot         25.822  71.849  16.147 113.819

 magnetization (x)

[...]

  FORCE on cell =-STRESS in cart. coord.  units (eV):
  Direction    XX          YY          ZZ          XY          YZ          ZX
  Alpha Z   500.24342   500.24342   500.24342
  Ewald   -3639.91521 -3167.93065 -2432.19581    -0.00006     0.00009   252.56176
  Hartree  1169.43599  1616.00504  2315.50246    -0.00004     0.00006   131.04984
  E(xc)    -799.16583  -798.33565  -798.01842     0.00000     0.00000    -0.00684
  Local     252.63809  -675.26293 -2104.27525     0.00010    -0.00015  -381.46922
  n-local  -398.65794  -405.97676  -415.01788    -0.00000     0.00000     1.01014
  augment   501.15095   502.61983   503.20817     0.00000     0.00000     0.09259
  Kinetic  2414.23474  2428.61337  2430.38680    -0.00000    -0.00000    -3.22159
  Fock        0.00000     0.00000     0.00000     0.00000     0.00000     0.00000
  Total      -0.03579    -0.02434    -0.16651    -0.00000    -0.00000     0.01668
  in kB      -0.26399    -0.17953    -1.22827    -0.00001    -0.00001     0.12300

 VOLUME and BASIS-vectors are now :
  energy-cutoff  :      520.00
  volume of cell :      217.20
      direct lattice vectors                 reciprocal lattice vectors
     0.004865579 -0.000000004  5.228212906     0.054091796 -0.000000001  0.191219606
    -4.682672480  4.434737659  1.324624446    -0.106748531  0.112746241  0.000099344
    -4.682672564 -4.434737752  1.324624447    -0.106748528 -0.112746239  0.000099344

  length of vectors
     5.228215170  6.583991919  6.583992041     0.198723074  0.155264205  0.155264202

 FORCES acting on ions
    electron-ion (+dipol)            ewald-force                    non-local-force                 convergence-correction
   -.189E-01 0.240E+03 0.878E-01   0.186E-01 -.236E+03 -.905E-01   0.576E-03 -.401E+01 0.219E-02   0.254E-05 0.902E-03 -.102E-05
   -.189E-01 -.240E+03 0.878E-01   0.186E-01 0.236E+03 -.905E-01   0.573E-03 0.401E+01 0.219E-02   0.464E-05 -.904E-03 -.173E-06
   -.522E+02 -.587E+01 0.317E+01   0.500E+02 0.152E+00 -.201E+01   0.207E+01 0.545E+01 -.113E+01   -.198E-03 -.190E-03 0.175E-04
   0.522E+02 -.585E+01 -.315E+01   -.500E+02 0.136E+00 0.199E+01   -.206E+01 0.545E+01 0.113E+01   0.200E-03 -.189E-03 -.166E-04
   0.522E+02 0.585E+01 -.315E+01   -.500E+02 -.136E+00 0.199E+01   -.206E+01 -.545E+01 0.113E+01   0.199E-03 0.188E-03 -.178E-04
   -.522E+02 0.587E+01 0.317E+01   0.500E+02 -.152E+00 -.201E+01   0.207E+01 -.545E+01 -.113E+01   -.200E-03 0.191E-03 0.172E-04
   -.175E+00 -.233E+03 -.355E+00   0.125E+00 0.234E+03 0.411E+00   0.459E-01 -.135E+01 -.608E-01   -.448E-04 -.334E-03 0.297E-05
   -.175E+00 0.233E+03 -.355E+00   0.125E+00 -.234E+03 0.411E+00   0.459E-01 0.135E+01 -.608E-01   -.483E-04 0.339E-03 -.134E-05
   -.212E+03 0.135E+03 -.618E+02   0.189E+03 -.135E+03 0.645E+02   0.225E+02 -.299E-01 -.262E+01   -.786E-03 0.253E-03 -.655E-04
   0.212E+03 0.134E+03 0.622E+02   -.189E+03 -.134E+03 -.649E+02   -.225E+02 -.430E-01 0.264E+01   0.784E-03 0.252E-03 0.672E-04
   0.212E+03 -.134E+03 0.622E+02   -.189E+03 0.134E+03 -.649E+02   -.225E+02 0.430E-01 0.264E+01   0.784E-03 -.253E-03 0.670E-04
   -.212E+03 -.135E+03 -.618E+02   0.189E+03 0.135E+03 0.645E+02   0.225E+02 0.299E-01 -.262E+01   -.786E-03 -.253E-03 -.666E-04
   0.140E+03 -.109E+03 -.468E+02   -.134E+03 0.843E+02 0.526E+02   -.620E+01 0.243E+02 -.585E+01   0.367E-03 -.637E-03 -.280E-05
   -.140E+03 -.109E+03 0.467E+02   0.134E+03 0.844E+02 -.525E+02   0.619E+01 0.243E+02 0.584E+01   -.365E-03 -.639E-03 0.538E-05
   -.140E+03 0.109E+03 0.467E+02   0.134E+03 -.844E+02 -.525E+02   0.619E+01 -.243E+02 0.584E+01   -.365E-03 0.637E-03 0.329E-05
   0.140E+03 0.109E+03 -.468E+02   -.134E+03 -.843E+02 0.526E+02   -.620E+01 -.243E+02 -.585E+01   0.365E-03 0.638E-03 -.311E-05
   -.899E+02 0.175E+02 0.717E+01   0.107E+03 -.231E+02 -.114E+02   -.176E+02 0.551E+01 0.424E+01   -.682E-04 -.952E-04 -.319E-04
   0.900E+02 0.175E+02 -.717E+01   -.108E+03 -.231E+02 0.114E+02   0.175E+02 0.551E+01 -.424E+01   0.698E-04 -.948E-04 0.321E-04
   0.900E+02 -.175E+02 -.717E+01   -.108E+03 0.231E+02 0.114E+02   0.175E+02 -.551E+01 -.424E+01   0.687E-04 0.933E-04 0.336E-04
   -.899E+02 -.175E+02 0.717E+01   0.107E+03 0.231E+02 -.114E+02   -.176E+02 -.551E+01 0.424E+01   -.695E-04 0.947E-04 -.331E-04
   -.115E+00 0.643E-05 0.636E-01   0.426E-13 -.153E-12 0.355E-13   0.996E-01 -.733E-05 -.773E-01   -.853E-04 -.822E-06 0.614E-05

 POSITION                                       TOTAL-FORCE (eV/Angst)
     -4.67900      1.78938      5.24576         0.001040     -0.023104      0.000174
     -4.68143     -1.78938      2.63166         0.001038      0.023104      0.000171
     -6.67507     -0.82642      5.68903         0.012890     -0.005947     -0.003817
     -2.68295     -0.82649      4.80267        -0.013310     -0.005606      0.005684
     -2.68539      0.82649      2.18856        -0.013313      0.005603      0.005685
     -6.67750      0.82642      3.07492         0.012887      0.005949     -0.003817
     -4.67922     -3.62583      5.24509        -0.003023      0.021150     -0.002969
     -4.68165      3.62583      2.63099        -0.003022     -0.021151     -0.002969
     -8.27834     -0.76580      5.70188         0.002679     -0.005929     -0.010176
     -1.07968     -0.76587      4.79003        -0.002093     -0.006402      0.008039
     -1.08211      0.76587      2.17592        -0.002091      0.006401      0.008039
     -8.28078      0.76580      3.08777         0.002681      0.005929     -0.010175
     -5.98812     -2.22975      5.97727        -0.008441     -0.010967     -0.007115
     -3.36997     -2.22976      4.51447         0.008986     -0.011331      0.008617
     -3.37240      2.22976      1.90036         0.008985      0.011334      0.008617
     -5.99055      2.22975      3.36316        -0.008441      0.010966     -0.007114
     -6.07057     -0.16765      4.28791        -0.012445     -0.020581      0.012417
     -3.29218     -0.16756      0.97552         0.013719     -0.020606     -0.010854
     -3.28975      0.16756      3.58963         0.013720      0.020606     -0.010855
     -6.06814      0.16765      6.90202        -0.012445      0.020582      0.012417
    total drift:                               -0.015107     -0.000002     -0.013692

  FREE ENERGIE OF THE ION-ELECTRON SYSTEM (eV)
  free  energy   TOTEN  =      -221.77126812 eV

  energy  without entropy=     -221.77126812  energy(sigma->0) =     -221.77126812

 reached required accuracy - stopping structural energy minimisation

 total charge

[...]

 magnetization (x)

# of ion       s       p       d       tot
    1       -0.000  -0.000  -0.001  -0.001
    2       -0.000  -0.000  -0.001  -0.001
    3        0.002   0.004   0.000   0.006
    4        0.002   0.004   0.000   0.006
    5        0.002   0.004   0.000   0.006
    6        0.002   0.004   0.000   0.006
    7       -0.003   0.000   1.765   1.763
    8       -0.003   0.000   1.765   1.763
    9        0.009   0.050   0.000   0.059
   10        0.009   0.050   0.000   0.059
   11        0.009   0.050   0.000   0.059
   12        0.009   0.050   0.000   0.059
   13        0.006   0.025   0.000   0.031
   14        0.006   0.025   0.000   0.031
   15        0.006   0.025   0.000   0.031
   16        0.006   0.025   0.000   0.031
   17        0.000   0.002   0.000   0.002
   18        0.000   0.002   0.000   0.002
   19        0.000   0.002   0.000   0.002
   20        0.000   0.002   0.000   0.002
tot          0.059   0.325   3.529   3.913