 vasp.6.1.2 22Jul20 (build Mar 19 2021 09:51:12) complex

 executed on             LinuxIFC date 2021.07.25  09:13:18

 INCAR:
 POTCAR:    PAW_PBE Ca_sv 06Sep2000
 POTCAR:    PAW_PBE Fe_pv 02Aug2007
 POTCAR:    PAW_PBE O 08Apr2002
 POTCAR:    PAW_PBE Ca_sv 06Sep2000
   VRHFIN =Ca: 3s3p4s

   TITEL  = PAW_PBE Ca_sv 06Sep2000
   POMASS =   40.078; ZVAL   =   10.000    mass and valenz
   ENMAX  =  266.622; ENMIN  =  199.967 eV

 POTCAR:    PAW_PBE Fe_pv 02Aug2007
   VRHFIN =Fe:  3pd7s1

   TITEL  = PAW_PBE Fe_pv 02Aug2007
   POMASS =   55.847; ZVAL   =   14.000    mass and valenz
   ENMAX  =  293.238; ENMIN  =  219.928 eV

 POTCAR:    PAW_PBE O 08Apr2002
   VRHFIN =O: s2p4

   TITEL  = PAW_PBE O 08Apr2002
   POMASS =   16.000; ZVAL   =    6.000    mass and valenz
   ENMAX  =  400.000; ENMIN  =  300.000 eV

 Optimization of the real space projectors (new method)

 maximal supplied QI-value         = 16.25
 optimisation between [QCUT,QGAM] = [ 11.54, 23.24] = [ 37.28,151.24] Ry
 Optimized for a Real-space Cutoff    1.58 Angstroem

   l    n(q)    QCUT    max X(q) W(low)/X(q) W(high)/X(q)  e(spline)
   0     11    11.539    11.817    0.25E-04    0.22E-05    0.26E-07
   0     11    11.539     8.461    0.39E-04    0.49E-05    0.55E-07
   1     11    11.539     3.957    0.21E-05    0.44E-05    0.32E-07
   1     11    11.539     4.314    0.56E-04    0.44E-04    0.19E-06
   2     10    11.539    14.565    0.25E-03    0.21E-04    0.75E-06
   2     10    11.539    14.552    0.23E-03    0.22E-04    0.72E-06
 Optimization of the real space projectors (new method)

[...]

   l    n(q)    QCUT    max X(q) W(low)/X(q) W(high)/X(q)  e(spline)
   1     10    11.565     4.267    0.91E-04    0.15E-03    0.13E-06
   1     10    11.565     5.750    0.14E-03    0.22E-03    0.20E-06
   2      9    11.565    53.656    0.13E-03    0.57E-04    0.16E-06
   2      9    11.565    49.521    0.13E-03    0.59E-04    0.16E-06
   0     10    11.565    31.246    0.61E-04    0.74E-05    0.89E-07
   0     10    11.565    12.201    0.44E-04    0.68E-05    0.74E-07
 Optimization of the real space projectors (new method)

 maximal supplied QI-value         = 24.76
 optimisation between [QCUT,QGAM] = [ 11.64, 23.27] = [ 37.91,151.63] Ry
 Optimized for a Real-space Cutoff    1.14 Angstroem

   l    n(q)    QCUT    max X(q) W(low)/X(q) W(high)/X(q)  e(spline)
   0      8    11.635    20.381    0.10E-03    0.33E-03    0.24E-06
   0      8    11.635    15.268    0.11E-03    0.35E-03    0.26E-06
   1      7    11.635     5.964    0.24E-03    0.31E-03    0.30E-06
   1      7    11.635     5.382    0.22E-03    0.25E-03    0.26E-06
  PAW_PBE Ca_sv 06Sep2000               :
  PAW_PBE Fe_pv 02Aug2007               :
  PAW_PBE O 08Apr2002                   :

 POSCAR: Ca2 Fe6 O10
  positions in direct lattice
  velocities in cartesian coordinates

 METAGGA = SCAN     LMAXTAU =  6    LMIXTAU =  F

 ion  position               nearest neighbor table
   1  0.524  0.047  0.253-   9 2.27   9 2.28  17 2.36  17 2.36  15 2.40  15 2.47
   2  0.479  0.962  0.746-  10 2.26  10 2.27  16 2.39  18 2.39  16 2.39  18 2.40
   3  0.003  0.995  0.498-  16 1.84  15 1.90  14 2.03  13 2.06  14 2.06  13 2.21
   4  0.002  0.005  0.002-  18 1.99  17 2.00  11 2.19  11 2.20  12 2.20  12 2.21
   5  0.280  0.540  0.395-   9 1.86  15 1.96  14 2.00  15 2.02  13 2.02  13 2.21
   6  0.725  0.455  0.605-  10 1.98  16 2.03  16 2.06  14 2.18  13 2.19  14 2.26
   7  0.267  0.536  0.112-   9 1.96  11 2.03  11 2.03  17 2.04  17 2.05  12 2.15
   8  0.734  0.472  0.888-  10 1.88  18 2.05  18 2.05  12 2.05  12 2.06  11 2.32
   9  0.192  0.393  0.258-   5 1.86   7 1.96   1 2.27   1 2.28
  10  0.810  0.619  0.750-   8 1.88   6 1.98   2 2.26   2 2.27
  11  0.647  0.295  0.059-   7 2.03   7 2.03   4 2.19   4 2.20   8 2.32
  12  0.349  0.701  0.954-   8 2.05   8 2.06   7 2.15   4 2.20   4 2.21
  13  0.603  0.270  0.446-   5 2.02   3 2.06   6 2.19   3 2.21   5 2.21
  14  0.382  0.733  0.536-   5 2.00   3 2.03   3 2.06   6 2.18   6 2.26
  15  0.918  0.794  0.368-   3 1.90   5 1.96   5 2.02   1 2.40   1 2.47
  16  0.084  0.180  0.626-   3 1.84   6 2.03   6 2.06   2 2.39   2 2.39
  17  0.903  0.808  0.141-   4 2.00   7 2.04   7 2.05   1 2.36   1 2.36
  18  0.098  0.197  0.863-   4 1.99   8 2.05   8 2.05   2 2.39   2 2.40

IMPORTANT INFORMATION: All symmetrisations will be switched off!
NOSYMM: (Re-)initialisation of all symmetry stuff for point group C_1.

                                     Primitive cell

  volume of cell :     186.1876

  direct lattice vectors                    reciprocal lattice vectors
     3.012601042  0.004276136  0.002743038     0.331795418  0.100435482  0.001203843
    -1.492803550  4.931905473 -0.027351569    -0.000288261  0.202677652  0.000633942
    -0.033573704 -0.039227138 12.526045932    -0.000073288  0.000420568  0.079834773

  length of vectors
     3.012605325  5.152950819 12.526152348     0.346665451  0.202678849  0.079835915

  position of ions in fractional coordinates (direct lattice)
     0.523842672  0.046661398  0.252569946
     0.478558205  0.961895552  0.746191377
     0.003181043  0.994540789  0.497505894
     0.001562272  0.004792565  0.002323237
     0.279826202  0.540262932  0.394839170
     0.725060226  0.454767552  0.605265298
     0.267285284  0.536102174  0.112273446
     0.734278041  0.471836885  0.887777082
     0.191962317  0.392980825  0.257984839
     0.809895478  0.619398813  0.750235867
     0.646914330  0.294602912  0.058981882
     0.349397520  0.700799894  0.954004173
     0.602654106  0.269699440  0.445872009
     0.382283387  0.732700206  0.535865191
     0.917982811  0.794288234  0.367620977
     0.084032014  0.179522498  0.625926663
     0.903230292  0.807788301  0.141445539
     0.098053799  0.197359029  0.863317410

  ion indices of the primitive-cell ions
   primitive index   ion index
                 1           1
                 2           2
                 3           3
                 4           4
                 5           5
                 6           6
                 7           7
                 8           8
                 9           9
                10          10
                11          11
                12          12
                13          13
                14          14
                15          15
                16          16
                17          17
                18          18

 KPOINTS: K-points file

Automatic generation of k-mesh.
Space group operators:
 irot       det(A)        alpha          n_x          n_y          n_z        tau_x        tau_y        tau_z
    1     1.000000     0.000001     1.000000     0.000000     0.000000     0.000000     0.000000     0.000000

 Subroutine IBZKPT returns following result:

 Found     36 irreducible k-points:

 Following reciprocal coordinates:
            Coordinates               Weight
  0.000000  0.000000  0.000000      1.000000
  0.250000 -0.000000 -0.000000      2.000000
  0.500000 -0.000000 -0.000000      1.000000
  0.000000  0.250000 -0.000000      2.000000
  0.250000  0.250000  0.000000      2.000000
  0.500000  0.250000  0.000000      2.000000
 -0.250000  0.250000 -0.000000      2.000000
  0.000000  0.500000  0.000000      1.000000
  0.250000  0.500000 -0.000000      2.000000
  0.500000  0.500000 -0.000000      1.000000
  0.000000 -0.000000  0.250000      2.000000
  0.250000 -0.000000  0.250000      2.000000
  0.500000 -0.000000  0.250000      2.000000
 -0.250000  0.000000  0.250000      2.000000
  0.000000  0.250000  0.250000      2.000000
  0.250000  0.250000  0.250000      2.000000
  0.500000  0.250000  0.250000      2.000000
 -0.250000  0.250000  0.250000      2.000000
 -0.000000  0.500000  0.250000      2.000000
  0.250000  0.500000  0.250000      2.000000
  0.500000  0.500000  0.250000      2.000000
 -0.250000  0.500000  0.250000      2.000000
 -0.000000 -0.250000  0.250000      2.000000
  0.250000 -0.250000  0.250000      2.000000
  0.500000 -0.250000  0.250000      2.000000
 -0.250000 -0.250000  0.250000      2.000000
  0.000000 -0.000000  0.500000      1.000000
  0.250000 -0.000000  0.500000      2.000000
  0.500000 -0.000000  0.500000      1.000000
  0.000000  0.250000  0.500000      2.000000
  0.250000  0.250000  0.500000      2.000000
  0.500000  0.250000  0.500000      2.000000
 -0.250000  0.250000  0.500000      2.000000
  0.000000  0.500000  0.500000      1.000000
  0.250000  0.500000  0.500000      2.000000
  0.500000  0.500000  0.500000      1.000000

 Following cartesian coordinates:
            Coordinates               Weight
  0.000000  0.000000  0.000000      1.000000
  0.082949  0.025109  0.000301      2.000000
  0.165898  0.050218  0.000602      1.000000
 -0.000072  0.050669  0.000158      2.000000
  0.082877  0.075778  0.000459      2.000000
  0.165826  0.100887  0.000760      2.000000
 -0.083021  0.025561 -0.000142      2.000000
 -0.000144  0.101339  0.000317      1.000000
  0.082805  0.126448  0.000618      2.000000
  0.165754  0.151557  0.000919      1.000000
 -0.000018  0.000105  0.019959      2.000000
  0.082931  0.025214  0.020260      2.000000
  0.165879  0.050323  0.020561      2.000000
 -0.082967 -0.025004  0.019658      2.000000
 -0.000090  0.050775  0.020117      2.000000
  0.082858  0.075883  0.020418      2.000000
  0.165807  0.100992  0.020719      2.000000
 -0.083039  0.025666  0.019816      2.000000
 -0.000162  0.101444  0.020276      2.000000
  0.082786  0.126553  0.020577      2.000000
  0.165735  0.151662  0.020878      2.000000
 -0.083111  0.076335  0.019975      2.000000
  0.000054 -0.050564  0.019800      2.000000
  0.083003 -0.025455  0.020101      2.000000
  0.165951 -0.000347  0.020402      2.000000
 -0.082895 -0.075673  0.019499      2.000000
 -0.000037  0.000210  0.039917      1.000000
  0.082912  0.025319  0.040218      2.000000
  0.165861  0.050428  0.040519      1.000000
 -0.000109  0.050880  0.040076      2.000000
  0.082840  0.075989  0.040377      2.000000
  0.165789  0.101097  0.040678      2.000000
 -0.083058  0.025771  0.039775      2.000000
 -0.000181  0.101549  0.040234      1.000000
  0.082768  0.126658  0.040535      2.000000
  0.165717  0.151767  0.040836      1.000000

 SYSTEM =  unknown system
 POSCAR =  Ca2 Fe6 O10

 Startparameter for this run:
   NWRITE =      2    write-flag & timer
   PREC   = accura    normal or accurate (medium, high low for compatibility)
   ISTART =      0    job   : 0-new  1-cont  2-samecut
   ICHARG =      1    charge: 1-file 2-atom 10-const
   ISPIN  =      2    spin polarized calculation?
   LNONCOLLINEAR =      F non collinear calculations
   LSORBIT =      F    spin-orbit coupling
   INIWAV =      1    electr: 0-lowe 1-rand  2-diag
   LASPH  =      T    aspherical Exc in radial PAW
   METAGGA=      F    non-selfconsistent MetaGGA calc.

 Electronic Relaxation 1
   ENCUT  =  520.0 eV  38.22 Ry    6.18 a.u.   5.60  9.58 23.29*2*pi/ulx,y,z
   ENINI  =  520.0     initial cutoff
   ENAUG  =  605.4 eV  augmentation charge cutoff
   NELM   =    100;   NELMIN=  6; NELMDL= -5     # of ELM steps
   EDIFF  = 0.1E-04   stopping-criterion for ELM
   LREAL  =      T    real-space projection
[...]
  WARNING: grid for Broyden might be to small

[...]

 d Force =-0.1607486E-03[-0.104E-03,-0.218E-03]  d Energy = 0.4380340E-01-0.440E-01
 d Force = 0.6333192E+00[ 0.636E+00, 0.631E+00]  d Ewald  = 0.8476325E+02-0.841E+02

[...]

 d Force =-0.1068980E-04[-0.990E-05,-0.115E-04]  d Energy = 0.7337847E-03-0.744E-03
 d Force = 0.7033531E-01[ 0.704E-01, 0.703E-01]  d Ewald  = 0.9379836E+01-0.931E+01

 real space projection operators:
  max/ min on nodes  :       2306.03       2301.50

[...]

 eigenvalue-minimisations  :  9876
 total energy-change (2. order) :-0.3659477E-04  (-0.1440160E-05)
 number of electron     164.0000006 magnetization      14.0000002
 augmentation part       62.3738991 magnetization       9.6458604

[...]

 Broyden mixing:
  rms(total) = 0.21064E-03    rms(broyden)= 0.20717E-03
  rms(prec ) = 0.21323E-03
  weight for this iteration     100.00

 eigenvalues of (default mixing * dielectric matrix)
  average eigenvalue GAMMA=   1.3525
  7.9308  2.5701  2.5701  1.1943  1.1943  0.9882  0.9882  0.6949  0.6949  0.7744
  0.6326  0.6326  0.6512  0.5360  0.4617  0.3855  0.0928

[...]

--------------------------------------- Iteration      5(  19)  ---------------------------------------

atom =   3  type =  2  l = 2

[...]

  o =  0.0702  v =  0.0000  0.0000  0.0000  0.0000  0.0000 -0.0138  0.8115  0.5710  0.0309  0.1198      0.0000  0.0000  0.0000  0.0000  0.0000  0.0000  0.0000  0.0000  0.0000  0.0000
  o =  0.0771  v =  0.0000  0.0000  0.0000  0.0000  0.0000  0.3618  0.0164  0.0349 -0.9314  0.0047      0.0000  0.0000  0.0000  0.0000  0.0000  0.0000  0.0000  0.0000  0.0000  0.0000
  o =  0.0916  v =  0.0000  0.0000  0.0000  0.0000  0.0000 -0.0020 -0.2006  0.0800  0.0036  0.9764      0.0000  0.0000  0.0000  0.0000  0.0000  0.0000  0.0000  0.0000  0.0000  0.0000
  o =  0.2303  v =  0.0000  0.0000  0.0000  0.0000  0.0000 -0.9284 -0.0546  0.0783 -0.3588 -0.0182      0.0000  0.0000  0.0000  0.0000  0.0000  0.0000  0.0000  0.0000  0.0000  0.0000
  o =  0.2394  v =  0.0000  0.0000  0.0000  0.0000  0.0000  0.0838 -0.5459  0.8126  0.0525 -0.1787      0.0000  0.0000  0.0000  0.0000  0.0000  0.0000  0.0000  0.0000  0.0000  0.0000
  o =  0.9669  v = -0.0035 -0.7172 -0.3619  0.0091  0.5954  0.0000  0.0000  0.0000  0.0000  0.0000      0.0000  0.0000  0.0000  0.0000  0.0000  0.0000  0.0000  0.0000  0.0000  0.0000
  o =  0.9678  v =  0.0056 -0.4300 -0.4426 -0.0139 -0.7868  0.0000  0.0000  0.0000  0.0000  0.0000      0.0000  0.0000  0.0000  0.0000  0.0000  0.0000  0.0000  0.0000  0.0000  0.0000
  o =  0.9701  v = -0.3779 -0.0057  0.0062  0.9256 -0.0194  0.0000  0.0000  0.0000  0.0000  0.0000      0.0000  0.0000  0.0000  0.0000  0.0000  0.0000  0.0000  0.0000  0.0000  0.0000
  o =  1.0086  v =  0.0481  0.5475 -0.8191  0.0319  0.1613  0.0000  0.0000  0.0000  0.0000  0.0000      0.0000  0.0000  0.0000  0.0000  0.0000  0.0000  0.0000  0.0000  0.0000  0.0000
  o =  1.0134  v = -0.9246  0.0309 -0.0464 -0.3768  0.0093  0.0000  0.0000  0.0000  0.0000  0.0000      0.0000  0.0000  0.0000  0.0000  0.0000  0.0000  0.0000  0.0000  0.0000  0.0000
atom =   8  type =  2  l = 2

 onsite density matrix

[...]

  0.2020 -0.0006  0.0011  0.0392 -0.0001
 -0.0006  0.1427 -0.0804  0.0009  0.0230
  0.0011 -0.0804  0.1841 -0.0012 -0.0198
  0.0392  0.0009 -0.0012  0.1173 -0.0001
 -0.0001  0.0230 -0.0198 -0.0001  0.0846

 occupancies and eigenvectors

  o =  0.0738  v =  0.0000  0.0000  0.0000  0.0000  0.0000 -0.0017 -0.6092 -0.3134  0.0076  0.7285      0.0000  0.0000  0.0000  0.0000  0.0000  0.0000  0.0000  0.0000  0.0000  0.0000
  o =  0.0859  v =  0.0000  0.0000  0.0000  0.0000  0.0000  0.0086 -0.5090 -0.5499 -0.0198 -0.6619      0.0000  0.0000  0.0000  0.0000  0.0000  0.0000  0.0000  0.0000  0.0000  0.0000
  o =  0.1019  v =  0.0000  0.0000  0.0000  0.0000  0.0000 -0.3643 -0.0136 -0.0001  0.9309 -0.0220      0.0000  0.0000  0.0000  0.0000  0.0000  0.0000  0.0000  0.0000  0.0000  0.0000
  o =  0.2173  v =  0.0000  0.0000  0.0000  0.0000  0.0000 -0.9310 -0.0123  0.0135 -0.3646 -0.0029      0.0000  0.0000  0.0000  0.0000  0.0000  0.0000  0.0000  0.0000  0.0000  0.0000
  o =  0.2518  v =  0.0000  0.0000  0.0000  0.0000  0.0000  0.0216 -0.6079  0.7741 -0.0045 -0.1753      0.0000  0.0000  0.0000  0.0000  0.0000  0.0000  0.0000  0.0000  0.0000  0.0000
  o =  0.9662  v = -0.0018 -0.4702 -0.1425  0.0054  0.8710  0.0000  0.0000  0.0000  0.0000  0.0000      0.0000  0.0000  0.0000  0.0000  0.0000  0.0000  0.0000  0.0000  0.0000  0.0000
  o =  0.9697  v =  0.0113 -0.6554 -0.6040 -0.0283 -0.4524  0.0000  0.0000  0.0000  0.0000  0.0000      0.0000  0.0000  0.0000  0.0000  0.0000  0.0000  0.0000  0.0000  0.0000  0.0000
  o =  0.9717  v = -0.4099 -0.0213 -0.0123  0.9116 -0.0200  0.0000  0.0000  0.0000  0.0000  0.0000      0.0000  0.0000  0.0000  0.0000  0.0000  0.0000  0.0000  0.0000  0.0000  0.0000
  o =  1.0056  v =  0.0445  0.5899 -0.7830  0.0274  0.1903  0.0000  0.0000  0.0000  0.0000  0.0000      0.0000  0.0000  0.0000  0.0000  0.0000  0.0000  0.0000  0.0000  0.0000  0.0000
  o =  1.0100  v = -0.9110  0.0312 -0.0400 -0.4092  0.0110  0.0000  0.0000  0.0000  0.0000  0.0000      0.0000  0.0000  0.0000  0.0000  0.0000  0.0000  0.0000  0.0000  0.0000  0.0000

 eigenvalue-minimisations  :  7666
 total energy-change (2. order) : 0.3423902E-05  (-0.4153190E-07)
 number of electron     164.0000006 magnetization      14.0000001
 augmentation part       62.3733331 magnetization       9.6458640

 Free energy of the ion-electron system (eV)
  alpha Z        PSCENC =       898.99614819
  Ewald energy   TEWEN  =    -14645.05056732
  -Hartree energ DENC   =     -5676.33132194
  -exchange      EXHF   =         0.00000000
  -V(xc)+E(xc)   XCENC  =       949.13940687
  PAW double counting   =     20305.56323362   -20918.71232592
  entropy T*S    EENTRO =        -0.00006883
  eigenvalues    EBANDS =     -2210.51163933
  atomic energy  EATOM  =     21080.26368125
  Solvation  Ediel_sol  =         0.00000000
  free energy    TOTEN  =      -216.64345341 eV

  energy without entropy =     -216.64338458  energy(sigma->0) =     -216.64341900

 average (electrostatic) potential at core
  the test charge radii are     1.1137  0.9500  0.7215
  (the norm of the test charge is              1.0000)
       1 -45.6694       2 -45.3806       3 -83.6573       4 -82.3426       5 -83.7648
       6 -81.4099       7 -85.5417       8 -85.3347       9 -72.4394      10 -71.8874
      11 -72.6797      12 -72.6498      13 -73.4038      14 -73.5250      15 -73.3976
      16 -72.6725      17 -72.3893      18 -72.3455

 E-fermi :   6.9280     XC(G=0): -12.7143     alpha+bet :-13.6366

[...]

 spin component 2

[...]

 k-point    36 :       0.5000    0.5000    0.5000
  band No.  band energies     occupation
      1     -51.0796      1.00000
      2     -50.5465      1.00000
      3     -50.1817      1.00000
      4     -49.4459      1.00000
      5     -49.3269      1.00000
      6     -49.1106      1.00000
      7     -48.2946      1.00000
      8     -48.2451      1.00000
      9     -48.2364      1.00000
     10     -48.1122      1.00000
     11     -48.0578      1.00000
     12     -48.0506      1.00000
     13     -47.7935      1.00000
     14     -47.6053      1.00000
     15     -47.4381      1.00000
     16     -45.7819      1.00000
     17     -45.4375      1.00000
     18     -45.4297      1.00000
     19     -34.6517      1.00000
     20     -34.3591      1.00000
     21     -15.8817      1.00000
     22     -15.5564      1.00000
     23     -14.9530      1.00000
     24     -14.8313      1.00000
     25     -14.6383      1.00000
     26     -14.5342      1.00000
     27     -13.8176      1.00000
     28     -13.7865      1.00000
     29     -13.5819      1.00000
     30     -13.0369      1.00000
     31     -12.8523      1.00000
     32     -12.8087      1.00000
     33     -12.6858      1.00000
     34     -12.4930      1.00000
     35     -12.2092      1.00000
     36     -11.7459      1.00000
     37      -1.4699      1.00000
     38      -0.9698      1.00000
     39      -0.8453      1.00000
     40      -0.4142      1.00000
     41      -0.3664      1.00000
     42      -0.1951      1.00000
     43       0.0539      1.00000
     44       0.4561      1.00000
     45       0.5502      1.00000
     46       0.6597      1.00000
     47       0.7992      1.00000
     48       0.8650      1.00000
     49       1.1801      1.00000
     50       1.3499      1.00000
     51       1.4284      1.00000
     52       1.6489      1.00000
     53       1.7334      1.00000
     54       1.8874      1.00000
     55       2.0630      1.00000
     56       2.2112      1.00000
     57       2.2416      1.00000
     58       2.3510      1.00000
     59       2.4128      1.00000
     60       2.4931      1.00000
[...]
     92       9.9246      0.00000
     93      10.0649      0.00000
     94      10.1922      0.00000
     95      10.9247      0.00000
     96      11.9071      0.00000
     97      12.5235      0.00000
     98      12.7110      0.00000
     99      12.9008      0.00000
    100      13.0433      0.00000
    101      13.3782      0.00000
    102      13.5177      0.00000
    103      14.1257      0.00000
    104      14.1794      0.00000
    105      14.5046      0.00000
    106      14.6325      0.00000

[...]

 soft charge-density along one line, spin component           2
         0         1         2         3         4         5         6         7         8         9
 total charge-density along one line

------------------------ aborting loop because EDIFF is reached ----------------------------------------

[...]

  FORCE on cell =-STRESS in cart. coord.  units (eV):
  Direction    XX          YY          ZZ          XY          YZ          ZX
  Alpha Z   898.99615   898.99615   898.99615
  Ewald   -4393.20880 -4607.52061 -5644.35574   -28.13864   177.96809     7.95985
  Hartree  2337.11040  2129.75775  1209.46700   -11.51901   106.16396     4.87946
  E(xc)   -1011.85939 -1011.91421 -1012.05854     0.03069    -0.08335    -0.02108
  Local    -813.24712  -390.18239  1584.69000    34.14362  -281.85344   -11.32945
  n-local  -464.01616  -460.73702  -448.23362    -1.47541     2.80833     0.50988
  augment  1037.52271  1034.90290  1020.82225     3.30454    -0.53340    -0.97407
  Kinetic  2408.21678  2406.18943  2390.20562     3.66315    -4.50742    -0.99747
  Fock        0.00000     0.00000     0.00000     0.00000     0.00000     0.00000
  Total      -0.48544    -0.50800    -0.46687     0.00894    -0.03722     0.02712
  in kB      -4.16884    -4.36259    -4.00943     0.07676    -0.31965     0.23289

 VOLUME and BASIS-vectors are now :
  energy-cutoff  :      520.00
  volume of cell :      186.56
      direct lattice vectors                 reciprocal lattice vectors
     3.014624052  0.004295455  0.002746852     0.331572213  0.100367372  0.001204389
    -1.493793174  4.935202704 -0.027415799    -0.000289174  0.202541917  0.000633958
    -0.033639331 -0.039281129 12.534496532    -0.000073294  0.000421010  0.079780952

  length of vectors
     3.014628363  5.156393643 12.534603222     0.346432089  0.202543115  0.079782097

 FORCES acting on ions
    electron-ion (+dipol)            ewald-force                    non-local-force                 convergence-correction
   -.343E+01 -.312E+01 0.782E+02   0.333E+01 0.460E+01 -.789E+02   0.995E-01 -.148E+01 0.699E+00   -.890E-06 -.599E-04 -.641E-03
   0.204E+00 0.112E+02 -.785E+02   -.208E+00 -.128E+02 0.786E+02   0.876E-03 0.155E+01 -.909E-01   0.549E-05 -.590E-05 0.581E-03
   0.159E+02 -.367E+02 -.693E+02   -.147E+02 0.356E+02 0.723E+02   -.117E+01 0.110E+01 -.301E+01   -.252E-04 0.137E-03 0.443E-03
   0.193E-01 0.127E+01 0.832E+02   0.113E-01 -.127E+01 -.834E+02   -.212E-01 0.207E-01 0.238E+00   0.175E-04 -.278E-04 -.353E-03
   0.131E+02 0.744E+02 0.311E+03   -.120E+02 -.728E+02 -.316E+03   -.111E+01 -.152E+01 0.530E+01   0.154E-03 -.957E-04 0.668E-04
   -.945E+01 -.772E+02 -.459E+03   0.893E+01 0.737E+02 0.466E+03   0.535E+00 0.347E+01 -.687E+01   -.609E-04 0.141E-03 0.681E-03
   -.177E+01 0.892E+01 -.199E+03   0.175E+01 -.878E+01 0.201E+03   -.360E-02 -.152E+00 -.216E+01   -.190E-04 0.188E-03 -.962E-03
   0.344E+00 0.269E+01 0.275E+03   -.302E+00 -.113E+01 -.281E+03   -.468E-01 -.152E+01 0.639E+01   -.854E-05 -.107E-03 0.449E-03
   0.379E+01 0.911E+02 0.831E+02   -.439E+01 -.939E+02 -.862E+02   0.606E+00 0.287E+01 0.318E+01   0.530E-04 -.380E-04 -.234E-03
   -.131E+01 -.856E+02 0.542E+01   0.143E+01 0.876E+02 -.866E+01   -.126E+00 -.205E+01 0.325E+01   -.170E-04 -.409E-05 0.254E-03
   0.352E+00 0.967E+02 -.700E+02   -.348E+00 -.101E+03 0.698E+02   -.121E-01 0.454E+01 0.234E+00   0.185E-05 -.387E-03 -.467E-03
   0.328E-01 -.966E+02 0.133E+03   -.628E-01 0.101E+03 -.135E+03   0.179E-01 -.458E+01 0.117E+01   0.416E-05 0.345E-03 0.896E-04
   -.390E+02 0.634E+02 0.135E+03   0.426E+02 -.651E+02 -.138E+03   -.356E+01 0.167E+01 0.281E+01   -.136E-03 -.574E-04 0.123E-03
   0.126E+02 -.283E+02 -.238E+03   -.137E+02 0.274E+02 0.247E+03   0.105E+01 0.837E+00 -.829E+01   0.222E-04 -.907E-04 0.249E-03
   0.971E+01 -.965E+02 0.304E+03   -.112E+02 0.990E+02 -.316E+03   0.147E+01 -.256E+01 0.125E+02   0.918E-04 0.168E-03 -.148E-03
   0.438E+00 0.647E+02 -.339E+03   -.302E+00 -.643E+02 0.351E+03   -.141E+00 -.398E+00 -.119E+02   -.283E-04 0.596E-04 0.278E-03
   0.178E+01 -.102E+03 -.186E+03   -.188E+01 0.105E+03 0.194E+03   0.951E-01 -.283E+01 -.762E+01   0.139E-05 0.239E-03 -.637E-03
   -.935E+00 0.109E+03 0.227E+03   0.999E+00 -.113E+03 -.235E+03   -.741E-01 0.335E+01 0.797E+01   0.341E-05 -.178E-03 0.455E-03
   0.236E+01 -.237E+01 -.372E+01   0.174E-13 0.995E-13 0.341E-12   -.239E+01 0.232E+01 0.381E+01   0.589E-04 0.225E-03 0.226E-03

 POSITION                                       TOTAL-FORCE (eV/Angst)
      1.50101      0.22263      3.16603         0.002670      0.005733      0.001418
     -0.01930      4.71990      9.32805        -0.001733     -0.002134     -0.000497
     -1.49272      4.88875      6.20866         0.018840     -0.003636     -0.004391
     -0.00251      0.02358      0.02902         0.008293      0.006319     -0.001392
      0.02328      2.65198      4.93504         0.006899     -0.003500     -0.004295
      1.48597      2.22367      7.57624         0.011738     -0.009644      0.006269
      0.00111      2.64254      1.39332        -0.016142      0.003394     -0.015494
      1.47886      2.29690     11.11695        -0.001984      0.007196      0.008355
     -0.01699      1.93015      3.22351         0.001632     -0.001166      0.017745
      1.49105      3.03084      9.38908        -0.000944      0.002753     -0.000109
      1.50812      1.45442      0.73293        -0.006758      0.020290     -0.011339
     -0.02567      3.42263     11.93971        -0.010669     -0.007399     -0.002036
      1.39892      1.31606      5.58307        -0.003439     -0.008795      0.007458
      0.03999      3.59660      6.69776         0.003125     -0.000364     -0.007588
      1.56854      3.90941      4.58874         0.007274     -0.009916      0.020593
     -0.03590      0.86175      7.84097        -0.003518     -0.007948     -0.014080
      1.51145      3.98495      1.75322        -0.007320      0.002563     -0.006717
     -0.02828      0.94053     10.81616        -0.007962      0.006254      0.006100
    total drift:                               -0.024386     -0.047855      0.090477

  FREE ENERGIE OF THE ION-ELECTRON SYSTEM (eV)
  free  energy   TOTEN  =      -216.64345341 eV

  energy  without entropy=     -216.64338458  energy(sigma->0) =     -216.64341900

 d Force =-0.9655388E-05[-0.886E-05,-0.104E-04]  d Energy =-0.1760799E-03 0.166E-03
 d Force = 0.7427795E-01[ 0.743E-01, 0.742E-01]  d Ewald  = 0.9909088E+01-0.983E+01

 reached required accuracy - stopping structural energy minimisation

 total charge

[...]

 magnetization (x)

# of ion       s       p       d       tot
    1        0.002   0.002   0.006   0.009
    2        0.002   0.002   0.010   0.014
    3       -0.006  -0.008  -0.961  -0.975
    4        0.027   0.022   3.739   3.787
    5        0.004   0.008   0.915   0.927
    6       -0.001   0.003   0.010   0.011
    7        0.019   0.027   4.217   4.262
    8        0.017   0.034   4.191   4.241
    9        0.008   0.154   0.000   0.162
   10        0.007   0.179   0.000   0.186
   11        0.025   0.257   0.000   0.282
   12        0.025   0.262   0.000   0.287
   13        0.002   0.018   0.000   0.020
   14       -0.000   0.028   0.000   0.027
   15       -0.000  -0.018   0.000  -0.019
   16        0.000  -0.021   0.000  -0.021
   17        0.015   0.207   0.000   0.223
   18        0.015   0.203   0.000   0.219
tot          0.160   1.359  12.125  13.643