 vasp.6.1.2 22Jul20 (build Mar 19 2021 09:51:12) complex

 executed on             LinuxIFC date 2021.07.26  06:14:43

 INCAR:
 POTCAR:    PAW_PBE Ca_sv 06Sep2000
 POTCAR:    PAW_PBE Mn_pv 02Aug2007
 POTCAR:    PAW_PBE O 08Apr2002
 POTCAR:    PAW_PBE Ca_sv 06Sep2000
   VRHFIN =Ca: 3s3p4s

   TITEL  = PAW_PBE Ca_sv 06Sep2000
   POMASS =   40.078; ZVAL   =   10.000    mass and valenz
   ENMAX  =  266.622; ENMIN  =  199.967 eV

 POTCAR:    PAW_PBE Mn_pv 02Aug2007
   VRHFIN =Mn: 3p4s3d

   TITEL  = PAW_PBE Mn_pv 02Aug2007
   POMASS =   54.938; ZVAL   =   13.000    mass and valenz
   ENMAX  =  269.864; ENMIN  =  202.398 eV

 POTCAR:    PAW_PBE O 08Apr2002
   VRHFIN =O: s2p4

   TITEL  = PAW_PBE O 08Apr2002
   POMASS =   16.000; ZVAL   =    6.000    mass and valenz
   ENMAX  =  400.000; ENMIN  =  300.000 eV

 Optimization of the real space projectors (new method)

 maximal supplied QI-value         = 16.25
 optimisation between [QCUT,QGAM] = [ 11.54, 23.24] = [ 37.28,151.24] Ry
 Optimized for a Real-space Cutoff    1.58 Angstroem

   l    n(q)    QCUT    max X(q) W(low)/X(q) W(high)/X(q)  e(spline)
   0     11    11.539    11.817    0.25E-04    0.22E-05    0.26E-07
   0     11    11.539     8.461    0.39E-04    0.49E-05    0.55E-07
   1     11    11.539     3.957    0.21E-05    0.44E-05    0.32E-07
   1     11    11.539     4.314    0.56E-04    0.44E-04    0.19E-06
   2     10    11.539    14.565    0.25E-03    0.21E-04    0.75E-06
   2     10    11.539    14.552    0.23E-03    0.22E-04    0.72E-06
 Optimization of the real space projectors (new method)

[...]

   l    n(q)    QCUT    max X(q) W(low)/X(q) W(high)/X(q)  e(spline)
   1     10    11.539     3.658    0.56E-04    0.12E-03    0.13E-06
   1     10    11.539     5.612    0.11E-03    0.23E-03    0.24E-06
   2      9    11.539    55.373    0.45E-04    0.92E-04    0.22E-06
   2      9    11.539    50.863    0.47E-04    0.95E-04    0.22E-06
   0     10    11.539    79.536    0.46E-04    0.27E-04    0.11E-06
   0     10    11.539    38.668    0.38E-04    0.25E-04    0.10E-06
 Optimization of the real space projectors (new method)

 maximal supplied QI-value         = 24.76
 optimisation between [QCUT,QGAM] = [ 11.64, 23.27] = [ 37.91,151.63] Ry
 Optimized for a Real-space Cutoff    1.14 Angstroem

   l    n(q)    QCUT    max X(q) W(low)/X(q) W(high)/X(q)  e(spline)
   0      8    11.635    20.381    0.10E-03    0.33E-03    0.24E-06
   0      8    11.635    15.268    0.11E-03    0.35E-03    0.26E-06
   1      7    11.635     5.964    0.24E-03    0.31E-03    0.30E-06
   1      7    11.635     5.382    0.22E-03    0.25E-03    0.26E-06
  PAW_PBE Ca_sv 06Sep2000               :
  PAW_PBE Mn_pv 02Aug2007               :
  PAW_PBE O 08Apr2002                   :

 POSCAR: Ca2 Mn1 O4
  positions in direct lattice
  velocities in cartesian coordinates

 METAGGA = SCAN     LMAXTAU =  6    LMIXTAU =  F

 ion  position               nearest neighbor table
   1  0.355  0.855  0.211-   4 2.27   7 2.51   6 2.51   6 2.52   7 2.52   3 3.12   3 3.12   3 3.12
                             3 3.13
   2  0.645  0.145  0.789-   5 2.27   7 2.51   6 2.51   6 2.52   7 2.52   3 3.12   3 3.12   3 3.12
                             3 3.12
   3  0.000  0.500  0.500-   6 1.85   7 1.85   7 1.85   6 1.85   4 1.91   5 1.91   1 3.12   2 3.12
                             2 3.12   2 3.12   1 3.12   1 3.12   2 3.12   1 3.13
   4  0.163  0.663  0.825-   3 1.91   1 2.27
   5  0.837  0.337  0.175-   3 1.91   2 2.27
   6  1.000  1.000  0.500-   3 1.85   3 1.85   2 2.51   1 2.51   1 2.52   2 2.52
   7  0.500  0.500  0.500-   3 1.85   3 1.85   2 2.51   1 2.51   1 2.52   2 2.52

IMPORTANT INFORMATION: All symmetrisations will be switched off!
NOSYMM: (Re-)initialisation of all symmetry stuff for point group C_1.

                                     Primitive cell

  volume of cell :      80.7579

  direct lattice vectors                    reciprocal lattice vectors
    -2.619137892 -2.619961140  0.001401221    -0.190948027 -0.190842527 -0.085080615
    -2.619137859  2.619961334  0.001400603    -0.190948012  0.190842509 -0.085080518
     2.622530968  0.000001400 -5.885798769    -0.000090897 -0.000000020 -0.169940975

  length of vectors
     3.704602763  3.704602877  6.443624432     0.283056055  0.283056004  0.169940999

  position of ions in fractional coordinates (direct lattice)
     0.354649542  0.854649678  0.210974103
     0.645395359  0.145395213  0.788999960
     0.000117401  0.500117425  0.500059236
     0.162529216  0.662528712  0.824681445
     0.837471568  0.337472060  0.175309959
     0.999960584  0.999876345  0.499987663
     0.499876330  0.499960568  0.499987634

  ion indices of the primitive-cell ions
   primitive index   ion index
                 1           1
                 2           2
                 3           3
                 4           4
                 5           5
                 6           6
                 7           7

 KPOINTS: K-points file

Automatic generation of k-mesh.
Space group operators:
 irot       det(A)        alpha          n_x          n_y          n_z        tau_x        tau_y        tau_z
    1     1.000000     0.000000     1.000000     0.000000     0.000000     0.000000     0.000000     0.000000

 Subroutine IBZKPT returns following result:

 Found    203 irreducible k-points:

 Following reciprocal coordinates:
            Coordinates               Weight
  0.000000  0.000000  0.000000      1.000000
  0.111111  0.000000 -0.000000      2.000000
 -0.000000 -0.111111  0.000000      2.000000
  0.222222  0.000000  0.000000      2.000000
  0.000000 -0.222222 -0.000000      2.000000
  0.333333 -0.000000  0.000000      2.000000
 -0.000000 -0.333333 -0.000000      2.000000
  0.444444  0.000000 -0.000000      2.000000
 -0.000000 -0.444444  0.000000      2.000000
  0.111111  0.111111 -0.000000      2.000000
  0.222222  0.111111 -0.000000      2.000000
 -0.111111 -0.222222 -0.000000      2.000000
  0.333333  0.111111  0.000000      2.000000
 -0.111111 -0.333333 -0.000000      2.000000
  0.444444  0.111111 -0.000000      2.000000
 -0.111111 -0.444444  0.000000      2.000000
 -0.444444  0.111111  0.000000      2.000000
 -0.111111  0.444444 -0.000000      2.000000
 -0.333333  0.111111  0.000000      2.000000
 -0.111111  0.333333  0.000000      2.000000
 -0.222222  0.111111 -0.000000      2.000000
 -0.111111  0.222222  0.000000      2.000000
 -0.111111  0.111111  0.000000      2.000000
  0.222222  0.222222  0.000000      2.000000
  0.333333  0.222222  0.000000      2.000000
 -0.222222 -0.333333  0.000000      2.000000
  0.444444  0.222222 -0.000000      2.000000
 -0.222222 -0.444444 -0.000000      2.000000
 -0.444444  0.222222  0.000000      2.000000
 -0.222222  0.444444 -0.000000      2.000000
 -0.333333  0.222222  0.000000      2.000000
 -0.222222  0.333333 -0.000000      2.000000
 -0.222222  0.222222 -0.000000      2.000000
  0.333333  0.333333 -0.000000      2.000000
  0.444444  0.333333 -0.000000      2.000000
 -0.333333 -0.444444 -0.000000      2.000000
 -0.444444  0.333333 -0.000000      2.000000
 -0.333333  0.444444  0.000000      2.000000
 -0.333333  0.333333  0.000000      2.000000
  0.444444  0.444444 -0.000000      2.000000
 -0.444444  0.444444 -0.000000      2.000000
 -0.000000  0.000000  0.200000      2.000000
  0.111111  0.000000  0.200000      2.000000
 -0.000000 -0.111111 -0.200000      2.000000
  0.222222  0.000000  0.200000      2.000000
 -0.000000 -0.222222 -0.200000      2.000000
  0.333333  0.000000  0.200000      2.000000
 -0.000000 -0.333333 -0.200000      2.000000
  0.444444  0.000000  0.200000      2.000000
  0.000000 -0.444444 -0.200000      2.000000
 -0.444444 -0.000000  0.200000      2.000000
 -0.000000  0.444444 -0.200000      2.000000
 -0.333333  0.000000  0.200000      2.000000
  0.000000  0.333333 -0.200000      2.000000
 -0.222222 -0.000000  0.200000      2.000000
  0.000000  0.222222 -0.200000      2.000000
 -0.111111 -0.000000  0.200000      2.000000
  0.000000  0.111111 -0.200000      2.000000
  0.111111  0.111111  0.200000      2.000000
  0.222222  0.111111  0.200000      2.000000
[...]
 -0.333333 -0.444444  0.400000      2.000000
  0.444444  0.333333 -0.400000      2.000000
 -0.222222 -0.444444  0.400000      2.000000
  0.444444  0.222222 -0.400000      2.000000
 -0.111111 -0.444444  0.400000      2.000000
  0.444444  0.111111 -0.400000      2.000000
 -0.333333 -0.333333  0.400000      2.000000
 -0.222222 -0.333333  0.400000      2.000000
  0.333333  0.222222 -0.400000      2.000000
 -0.111111 -0.333333  0.400000      2.000000
  0.333333  0.111111 -0.400000      2.000000
 -0.222222 -0.222222  0.400000      2.000000
 -0.111111 -0.222222  0.400000      2.000000
  0.222222  0.111111 -0.400000      2.000000
 -0.111111 -0.111111  0.400000      2.000000

 Following cartesian coordinates:
            Coordinates               Weight
  0.000000  0.000000  0.000000      1.000000
 -0.021216 -0.021205 -0.009453      2.000000
  0.021216 -0.021205  0.009453      2.000000
 -0.042433 -0.042409 -0.018907      2.000000
  0.042433 -0.042409  0.018907      2.000000
 -0.063649 -0.063614 -0.028360      2.000000
  0.063649 -0.063614  0.028360      2.000000
 -0.084866 -0.084819 -0.037814      2.000000
  0.084866 -0.084819  0.037814      2.000000
 -0.042433 -0.000000 -0.018907      2.000000
 -0.063649 -0.021205 -0.028360      2.000000
  0.063649 -0.021205  0.028360      2.000000
 -0.084866 -0.042409 -0.037814      2.000000
  0.084866 -0.042409  0.037814      2.000000
 -0.106082 -0.063614 -0.047267      2.000000
  0.106082 -0.063614  0.047267      2.000000
  0.063649  0.106024  0.028360      2.000000
 -0.063649  0.106024 -0.028360      2.000000
  0.042433  0.084819  0.018907      2.000000
 -0.042433  0.084819 -0.018907      2.000000
  0.021216  0.063614  0.009453      2.000000
 -0.021216  0.063614 -0.009453      2.000000
  0.000000  0.042409  0.000000      2.000000
 -0.084866 -0.000000 -0.037814      2.000000
 -0.106082 -0.021205 -0.047267      2.000000
  0.106082 -0.021205  0.047267      2.000000
 -0.127299 -0.042409 -0.056720      2.000000
  0.127299 -0.042409  0.056720      2.000000
  0.042433  0.127228  0.018907      2.000000
 -0.042433  0.127228 -0.018907      2.000000
  0.021216  0.106024  0.009453      2.000000
 -0.021216  0.106024 -0.009453      2.000000
  0.000000  0.084819  0.000000      2.000000
 -0.127299 -0.000000 -0.056720      2.000000
 -0.148515 -0.021205 -0.066174      2.000000
  0.148515 -0.021205  0.066174      2.000000
  0.021216  0.148433  0.009453      2.000000
 -0.021216  0.148433 -0.009453      2.000000
  0.000000  0.127228  0.000000      2.000000
 -0.169732 -0.000000 -0.075627      2.000000
  0.000000  0.169638  0.000000      2.000000
 -0.000018 -0.000000 -0.033988      2.000000
 -0.021235 -0.021205 -0.043442      2.000000
  0.021235 -0.021205  0.043442      2.000000
 -0.042451 -0.042409 -0.052895      2.000000
  0.042451 -0.042409  0.052895      2.000000
 -0.063668 -0.063614 -0.062348      2.000000
  0.063668 -0.063614  0.062348      2.000000
 -0.084884 -0.084819 -0.071802      2.000000
  0.084884 -0.084819  0.071802      2.000000
  0.084848  0.084819  0.003825      2.000000
[...]
     12     -15.6163      1.00000
     13     -14.7546      1.00000
     14     -13.4457      1.00000
     15     -13.3672      1.00000
     16      -0.8760      1.00000
     17      -0.8748      1.00000
     18      -0.8445      1.00000
     19      -0.8438      1.00000
     20      -0.2915      1.00000
     21      -0.2855      1.00000
     22       1.1665      1.00000
     23       2.0749      1.00000
     24       2.0787      1.00000
     25       2.6580      1.00000
     26       2.7342      1.00000
     27       2.7346      1.00000
     28       2.8504      1.00000
     29       2.9433      1.00000
     30       2.9440      1.00000
     31       4.3882      0.00000
     32       6.4138      0.00000
     33       8.9025      0.00000
     34       9.4370      0.00000
     35       9.9436      0.00000
     36      10.8769      0.00000

[...]

 soft charge-density along one line, spin component           1
         0         1         2         3         4         5         6         7         8         9
 total charge-density along one line

[...]

------------------------ aborting loop because EDIFF is reached ----------------------------------------

 total charge

# of ion       s       p       d       tot
    1        2.021   5.866   0.242   8.130
    2        2.021   5.866   0.242   8.130
    3        0.391   6.504   4.910  11.805
    4        1.566   3.472   0.000   5.037
    5        1.566   3.472   0.000   5.037
    6        1.572   3.550   0.000   5.123
    7        1.572   3.550   0.000   5.123
tot         10.710  32.280   5.395  48.385

 magnetization (x)

[...]

  FORCE on cell =-STRESS in cart. coord.  units (eV):
  Direction    XX          YY          ZZ          XY          YZ          ZX
  Alpha Z   310.05956   310.05956   310.05956
  Ewald   -1160.96307 -1161.31977 -1746.38722     0.00003    -0.00003    -2.28410
  Hartree   711.61701   711.40059   178.35302    -0.00012    -0.00103    -1.46301
  E(xc)    -306.77059  -306.77445  -306.49189    -0.00001     0.00014    -0.00406
  Local    -461.96767  -461.38630   650.56856     0.00017     0.00259     3.74938
  n-local  -194.05760  -194.03566  -195.54530    -0.00003     0.00087     0.00339
  augment   190.43944   190.35958   191.85304    -0.00065    -0.00162    -0.06663
  Kinetic   910.93464   910.89270   917.67739    -0.00013    -0.00004     0.03458
  Fock        0.00000     0.00000     0.00000     0.00000     0.00000     0.00000
  Total      -0.70829    -0.80376     0.08716    -0.00073     0.00088    -0.03045
  in kB     -14.05198   -15.94599     1.72919    -0.01453     0.01745    -0.60412

 VOLUME and BASIS-vectors are now :
  energy-cutoff  :      520.00
  volume of cell :       80.76
      direct lattice vectors                 reciprocal lattice vectors
    -2.619137892 -2.619961140  0.001401221    -0.190948027 -0.190842527 -0.085080615
    -2.619137859  2.619961334  0.001400603    -0.190948012  0.190842509 -0.085080518
     2.622530968  0.000001400 -5.885798769    -0.000090897 -0.000000020 -0.169940975

[...]

 FORCES acting on ions
    electron-ion (+dipol)            ewald-force                    non-local-force                 convergence-correction
   0.676E+00 -.360E-03 -.288E+03   -.676E+00 0.252E-03 0.290E+03   0.973E-02 0.176E-03 -.102E+01   0.355E-03 0.113E-04 -.368E-02
   -.644E+00 0.331E-03 0.289E+03   0.639E+00 -.238E-03 -.290E+03   -.585E-02 -.179E-03 0.103E+01   -.356E-03 0.772E-05 0.368E-02
   -.607E+00 0.691E-03 -.846E-01   0.620E+00 -.267E-04 0.916E-01   -.939E-02 -.986E-03 0.441E-02   -.275E-03 0.173E-03 0.181E-02
   0.691E+00 0.874E-04 0.280E+03   -.750E+00 -.151E-04 -.289E+03   0.606E-01 -.214E-03 0.881E+01   -.247E-03 0.205E-04 -.646E-03
   -.793E+00 -.604E-04 -.280E+03   0.856E+00 0.208E-07 0.289E+03   -.636E-01 0.448E-03 -.878E+01   0.191E-03 -.221E-04 0.247E-03
   0.307E+00 -.431E+00 -.122E+00   -.344E+00 0.477E+00 0.139E+00   0.367E-01 -.445E-01 -.180E-01   -.632E-04 -.125E-04 0.578E-04
   0.307E+00 0.431E+00 -.122E+00   -.344E+00 -.477E+00 0.139E+00   0.368E-01 0.446E-01 -.180E-01   -.743E-04 -.204E-06 0.492E-04
   -.612E-01 0.613E-03 0.104E-01   -.211E-14 -.366E-14 0.142E-13   0.650E-01 -.619E-03 -.364E-02   -.470E-03 0.178E-03 0.152E-02

 POSITION                                       TOTAL-FORCE (eV/Angst)
     -2.61404      1.30998     -1.24006         0.009825      0.000055      0.169651
     -0.00201     -1.30998     -4.64279        -0.011684     -0.000102     -0.173536
      0.00124      1.30998     -2.94255         0.004534     -0.000160      0.011985
      0.00181      1.30998     -4.85275         0.000459     -0.000145     -0.011853
     -2.61758     -1.30998     -1.03019        -0.000893      0.000341      0.009517
     -3.92662     -0.00022     -2.94003        -0.001130      0.001896     -0.002888
     -1.30748      0.00022     -2.94143        -0.001112     -0.001884     -0.002874
    total drift:                                0.003358      0.000171      0.008251

  FREE ENERGIE OF THE ION-ELECTRON SYSTEM (eV)
  free  energy   TOTEN  =       -79.27033825 eV

  energy  without entropy=      -79.26591297  energy(sigma->0) =      -79.26812561

[...]

 d Force = 0.2342277E-02[ 0.181E-02, 0.287E-02]  d Energy = 0.7513872E-02-0.517E-02
 d Force = 0.5090926E+01[ 0.509E+01, 0.510E+01]  d Ewald  = 0.1619417E+02-0.111E+02

 Steepest descent step on ions:
 trial-energy change:   -0.007514  1 .order   -0.005359   -0.010848    0.000130
  (g-gl).g = 0.108E-01      g.g   = 0.108E-01  gl.gl    = 0.000E+00
 g(Force)  = 0.287E-02   g(Stress)= 0.798E-02 ortho     = 0.000E+00
 gamma     =   0.00000
 trial     =   1.00000
 opt step  =   0.99456  (harmonic =   0.98819) maximal distance =0.00813988
 next E    =   -79.277852   (d E  =  -0.00751)

[...]

 Broyden mixing:
  rms(total) = 0.17653E-02    rms(broyden)= 0.10632E-02
  rms(prec ) = 0.11078E-02
  weight for this iteration     100.00
  WARNING: grid for Broyden might be to small

[...]

 d Force =-0.9868914E-05[-0.990E-05,-0.984E-05]  d Energy = 0.5301718E-05-0.152E-04
 d Force =-0.2764105E-01[-0.276E-01,-0.276E-01]  d Ewald  =-0.8832174E-01 0.607E-01

[...]

 d Force = 0.7993923E-03[-0.250E-03, 0.185E-02]  d Energy = 0.1127576E-02-0.328E-03
 d Force = 0.5278719E+01[ 0.524E+01, 0.532E+01]  d Ewald  =-0.4038291E+00 0.568E+01

 Conjugate gradient step on ions:
 trial-energy change:   -0.001128  1 .order   -0.001369   -0.003508    0.000770
  (g-gl).g = 0.392E-02      g.g   = 0.362E-02  gl.gl    = 0.108E-01
 g(Force)  = 0.119E-02   g(Stress)= 0.243E-02 ortho     =-0.297E-03
 gamma     =   0.36104
 trial     =   0.99891
 opt step  =   0.75705  (harmonic =   0.81919) maximal distance =0.00626619
 next E    =   -79.279082   (d E  =  -0.00122)

 real space projection operators:
  max/ min on nodes  :        916.02        907.34

[...]

 eigenvalue-minimisations  : 15075
 total energy-change (2. order) : 0.1402866E-04  (-0.6894766E-07)
 number of electron      56.9999999 magnetization       1.4803655
 augmentation part       15.0961255 magnetization       1.0389798

 Broyden mixing:
  rms(total) = 0.24232E-03    rms(broyden)= 0.24003E-03
  rms(prec ) = 0.25736E-03
  weight for this iteration     100.00

 eigenvalues of (default mixing * dielectric matrix)
  average eigenvalue GAMMA=   1.0630
  2.4710  2.4710  0.2756  1.0914  0.7993  0.7993  0.5154  0.5722  0.5722

[...]

--------------------------------------- Iteration      5(  11)  ---------------------------------------

atom =   3  type =  2  l = 2

 onsite density matrix

[...]

  0.3321  0.0004 -0.0000  0.0000 -0.0001
  0.0004  0.1320  0.0000  0.0000  0.0001
 -0.0000  0.0000  0.4003 -0.0000 -0.0002
  0.0000  0.0000 -0.0000  0.1318 -0.0053
 -0.0001  0.0001 -0.0002 -0.0053  0.8031

 occupancies and eigenvectors

  o =  0.1317  v =  0.0000  0.0000  0.0000  0.0000  0.0000 -0.0000 -0.0077  0.0000  0.9999  0.0079      0.0000  0.0000  0.0000  0.0000  0.0000  0.0000  0.0000  0.0000  0.0000  0.0000
  o =  0.1320  v =  0.0000  0.0000  0.0000  0.0000  0.0000 -0.0020  1.0000 -0.0000  0.0077 -0.0001      0.0000  0.0000  0.0000  0.0000  0.0000  0.0000  0.0000  0.0000  0.0000  0.0000
  o =  0.3321  v =  0.0000  0.0000  0.0000  0.0000  0.0000 -1.0000 -0.0020 -0.0000 -0.0000 -0.0001      0.0000  0.0000  0.0000  0.0000  0.0000  0.0000  0.0000  0.0000  0.0000  0.0000
  o =  0.3923  v = -0.0001 -0.0000 -1.0000 -0.0020  0.0007  0.0000  0.0000  0.0000  0.0000  0.0000      0.0000  0.0000  0.0000  0.0000  0.0000  0.0000  0.0000  0.0000  0.0000  0.0000
  o =  0.4003  v =  0.0000  0.0000  0.0000  0.0000  0.0000 -0.0000  0.0000  1.0000 -0.0000  0.0005      0.0000  0.0000  0.0000  0.0000  0.0000  0.0000  0.0000  0.0000  0.0000  0.0000
  o =  0.4026  v =  1.0000 -0.0016 -0.0001  0.0001 -0.0078  0.0000  0.0000  0.0000  0.0000  0.0000      0.0000  0.0000  0.0000  0.0000  0.0000  0.0000  0.0000  0.0000  0.0000  0.0000
  o =  0.4204  v =  0.0078  0.0001  0.0007 -0.0073  0.9999  0.0000  0.0000  0.0000  0.0000  0.0000      0.0000  0.0000  0.0000  0.0000  0.0000  0.0000  0.0000  0.0000  0.0000  0.0000
  o =  0.8032  v =  0.0000  0.0000  0.0000  0.0000  0.0000  0.0001 -0.0002  0.0005  0.0079 -1.0000      0.0000  0.0000  0.0000  0.0000  0.0000  0.0000  0.0000  0.0000  0.0000  0.0000
  o =  0.9710  v = -0.0016 -0.9999 -0.0000  0.0167  0.0003  0.0000  0.0000  0.0000  0.0000  0.0000      0.0000  0.0000  0.0000  0.0000  0.0000  0.0000  0.0000  0.0000  0.0000  0.0000
  o =  0.9710  v =  0.0000  0.0167 -0.0020  0.9998  0.0073  0.0000  0.0000  0.0000  0.0000  0.0000      0.0000  0.0000  0.0000  0.0000  0.0000  0.0000  0.0000  0.0000  0.0000  0.0000

 eigenvalue-minimisations  : 14967
 total energy-change (2. order) :-0.5461279E-06  (-0.3366635E-07)
 number of electron      56.9999999 magnetization       1.4803655
 augmentation part       15.0961255 magnetization       1.0389798

 Free energy of the ion-electron system (eV)
  alpha Z        PSCENC =       312.38712406
  Ewald energy   TEWEN  =     -4084.47265193
  -Hartree energ DENC   =     -1591.75444143
  -exchange      EXHF   =         0.00000000
  -V(xc)+E(xc)   XCENC  =       316.17245262
  PAW double counting   =      5635.88251874    -5720.64965223
  entropy T*S    EENTRO =        -0.00485922
  eigenvalues    EBANDS =      -713.70949602
  atomic energy  EATOM  =      5766.86992388
  Solvation  Ediel_sol  =         0.00000000
  free energy    TOTEN  =       -79.27908154 eV

  energy without entropy =      -79.27422232  energy(sigma->0) =      -79.27665193

 average (electrostatic) potential at core
  the test charge radii are     1.1137  0.9577  0.7215
  (the norm of the test charge is              1.0000)
       1 -47.3139       2 -47.3137       3 -76.9129       4 -73.2742       5 -73.2744
       6 -74.3788       7 -74.3790

 E-fermi :   4.0648     XC(G=0): -11.9197     alpha+bet :-13.7723

[...]

 spin component 2

[...]

 k-point   203 :      -0.1111   -0.1111    0.4000
  band No.  band energies     occupation
      1     -46.0924      1.00000
      2     -46.0917      1.00000
      3     -45.2136      1.00000
      4     -36.3099      1.00000
      5     -36.2791      1.00000
      6     -17.2817      1.00000
      7     -16.6619      1.00000
      8     -16.4770      1.00000
      9     -16.4163      1.00000
     10     -16.3729      1.00000
     11     -16.3631      1.00000
     12     -15.1816      1.00000
     13     -14.6818      1.00000
     14     -13.3412      1.00000
     15     -13.2322      1.00000
     16      -1.1571      1.00000
     17      -0.8503      1.00000
     18      -0.1414      1.00000
     19       0.0876      1.00000
     20       0.7181      1.00000
     21       0.8918      1.00000
     22       1.6781      1.00000
     23       1.7948      1.00000
     24       2.4084      1.00000
     25       2.4373      1.00000
     26       2.7239      1.00000
     27       2.7803      1.00000
     28       2.8523      1.00000
     29       6.2323      0.00000
     30       6.2585      0.00000
     31       6.7516      0.00000
     32       7.0119      0.00000
     33       9.1660      0.00000
     34       9.8035      0.00000
     35      10.8185      0.00000
     36      10.8513      0.00000

[...]

 soft charge-density along one line, spin component           2
         0         1         2         3         4         5         6         7         8         9
 total charge-density along one line

------------------------ aborting loop because EDIFF is reached ----------------------------------------

[...]

  FORCE on cell =-STRESS in cart. coord.  units (eV):
  Direction    XX          YY          ZZ          XY          YZ          ZX
  Alpha Z   312.38712   312.38712   312.38712
  Ewald   -1167.50827 -1166.73826 -1750.23037     0.00833     0.00486    -2.87306
  Hartree   706.18578   706.64292   178.92951     0.00397     0.00411    -1.85374
  E(xc)    -306.87821  -306.87624  -306.65360     0.00005    -0.00002    -0.00366
  Local    -452.32183  -453.57010   651.79614    -0.01256    -0.00831     4.71986
  n-local  -193.90041  -193.90986  -195.74371     0.00001     0.00021    -0.00183
  augment   190.44263   190.40746   191.61913     0.00003    -0.00060    -0.05321
  Kinetic   911.70522   911.78769   917.91512     0.00037    -0.00112     0.06914
  Fock        0.00000     0.00000     0.00000     0.00000     0.00000     0.00000
  Total       0.11203     0.13073     0.01934     0.00020    -0.00088     0.00350
  in kB       2.23919     2.61305     0.38667     0.00404    -0.01751     0.06993

 VOLUME and BASIS-vectors are now :
  energy-cutoff  :      520.00
  volume of cell :       80.16
      direct lattice vectors                 reciprocal lattice vectors
    -2.606363975 -2.604464502  0.001964470    -0.191902271 -0.191977853 -0.084841997
    -2.606390503  2.604483886  0.001992294    -0.191900844  0.191976805 -0.084843594
     2.611151215 -0.000034259 -5.906028712    -0.000128565  0.000000904 -0.169375354

  length of vectors
     3.684612920  3.684645402  6.457498418     0.284394343  0.284393149  0.169375403

 FORCES acting on ions
    electron-ion (+dipol)            ewald-force                    non-local-force                 convergence-correction
   0.745E+00 0.114E-02 -.285E+03   -.747E+00 -.128E-02 0.286E+03   0.148E-02 0.108E-03 -.101E+01   0.230E-04 -.100E-05 0.236E-03
   -.773E+00 -.154E-02 0.285E+03   0.770E+00 0.169E-02 -.286E+03   0.404E-02 -.968E-04 0.101E+01   -.280E-04 0.114E-05 -.252E-03
   -.424E+00 0.533E-03 -.197E-01   0.442E+00 -.491E-03 0.215E-01   -.197E-01 -.505E-04 -.326E-02   -.128E-04 0.458E-06 0.202E-04
   0.915E+00 -.103E-02 0.276E+03   -.989E+00 0.790E-03 -.285E+03   0.734E-01 0.231E-04 0.853E+01   -.212E-04 0.320E-06 -.878E-03
   -.972E+00 0.125E-02 -.276E+03   0.105E+01 -.103E-02 0.285E+03   -.752E-01 -.363E-03 -.853E+01   0.281E-04 -.179E-05 0.873E-03
   0.234E+00 -.318E+00 0.562E-02   -.262E+00 0.354E+00 -.738E-02   0.288E-01 -.368E-01 0.208E-02   0.944E-06 0.385E-05 0.325E-04
   0.233E+00 0.317E+00 0.544E-02   -.262E+00 -.354E+00 -.719E-02   0.288E-01 0.368E-01 0.206E-02   0.190E-05 -.333E-05 0.325E-04
   -.414E-01 0.584E-04 0.120E-02   -.294E-14 -.389E-15 0.142E-12   0.416E-01 -.408E-03 -.872E-03   -.795E-05 -.357E-06 0.643E-04

 POSITION                                       TOTAL-FORCE (eV/Angst)
     -2.59996      1.30225     -1.22916        -0.000112      0.000009      0.018650
     -0.00200     -1.30226     -4.67288         0.000920      0.000101     -0.018160
      0.00204      1.30223     -2.95199        -0.001087      0.000041     -0.001483
      0.00279      1.30220     -4.87021        -0.001262     -0.000169      0.028792
     -2.60442     -1.30221     -1.03185         0.001194     -0.000090     -0.028377
     -3.90682     -0.00011     -2.94909         0.000165      0.000015      0.000290
     -1.30045      0.00011     -2.95107         0.000183      0.000093      0.000288
    total drift:                                0.000108     -0.000350      0.000388

  FREE ENERGIE OF THE ION-ELECTRON SYSTEM (eV)
  free  energy   TOTEN  =       -79.27908154 eV

  energy  without entropy=      -79.27422232  energy(sigma->0) =      -79.27665193

 d Force = 0.2611134E-07[-0.602E-04, 0.603E-04]  d Energy = 0.9654092E-04-0.965E-04
 d Force =-0.1264887E+01[-0.127E+01,-0.126E+01]  d Ewald  = 0.1043818E+00-0.137E+01

 reached required accuracy - stopping structural energy minimisation

 total charge

[...]

 magnetization (x)

# of ion       s       p       d       tot
    1        0.000   0.000   0.001   0.001
    2        0.000   0.000   0.001   0.001
    3       -0.000   0.008   1.358   1.365
    4        0.002   0.061   0.000   0.062
    5        0.002   0.061   0.000   0.062
    6       -0.002  -0.035   0.000  -0.037
    7       -0.002  -0.035   0.000  -0.037
tot         -0.000   0.060   1.360   1.419