 vasp.6.1.2 22Jul20 (build Apr 14 2021 21:39:43) complex

 executed on             LinuxIFC date 2022.03.24  08:48:41

 INCAR:
 POTCAR:    PAW_PBE Ca_sv 06Sep2000
 POTCAR:    PAW_PBE Mn_pv 02Aug2007
 POTCAR:    PAW_PBE P 06Sep2000
 POTCAR:    PAW_PBE O 08Apr2002
 POTCAR:    PAW_PBE Ca_sv 06Sep2000
   VRHFIN =Ca: 3s3p4s

   TITEL  = PAW_PBE Ca_sv 06Sep2000
   POMASS =   40.078; ZVAL   =   10.000    mass and valenz
   ENMAX  =  266.622; ENMIN  =  199.967 eV

   TITEL  = PAW_PBE Mn_pv 02Aug2007
   POMASS =   54.938; ZVAL   =   13.000    mass and valenz
   ENMAX  =  269.864; ENMIN  =  202.398 eV

   TITEL  = PAW_PBE P 06Sep2000
   POMASS =   30.974; ZVAL   =    5.000    mass and valenz
   ENMAX  =  255.040; ENMIN  =  191.280 eV

   TITEL  = PAW_PBE O 08Apr2002
   POMASS =   16.000; ZVAL   =    6.000    mass and valenz
   ENMAX  =  400.000; ENMIN  =  300.000 eV

 Optimization of the real space projectors (new method)

 maximal supplied QI-value         = 16.25
 optimisation between [QCUT,QGAM] = [ 11.54, 23.24] = [ 37.28,151.24] Ry
 Optimized for a Real-space Cutoff    1.58 Angstroem

   l    n(q)    QCUT    max X(q) W(low)/X(q) W(high)/X(q)  e(spline)
   0     11    11.539    11.817    0.25E-04    0.22E-05    0.26E-07
   0     11    11.539     8.461    0.39E-04    0.49E-05    0.55E-07
   1     11    11.539     3.957    0.21E-05    0.44E-05    0.32E-07
   1     11    11.539     4.314    0.56E-04    0.44E-04    0.19E-06
   2     10    11.539    14.565    0.25E-03    0.21E-04    0.75E-06
   2     10    11.539    14.552    0.23E-03    0.22E-04    0.72E-06
 Optimization of the real space projectors (new method)

[...]

   l    n(q)    QCUT    max X(q) W(low)/X(q) W(high)/X(q)  e(spline)
   0      8    11.508   160.924    0.96E-04    0.17E-03    0.52E-07
   0      8    11.508   130.086    0.95E-04    0.17E-03    0.51E-07
   1      8    11.508    74.434    0.16E-03    0.74E-04    0.91E-07
   1      8    11.508    49.120    0.16E-03    0.71E-04    0.89E-07
 Optimization of the real space projectors (new method)

 maximal supplied QI-value         = 24.76
 optimisation between [QCUT,QGAM] = [ 11.64, 23.27] = [ 37.91,151.63] Ry
 Optimized for a Real-space Cutoff    1.14 Angstroem

   l    n(q)    QCUT    max X(q) W(low)/X(q) W(high)/X(q)  e(spline)
   0      8    11.635    20.381    0.10E-03    0.33E-03    0.24E-06
   0      8    11.635    15.268    0.11E-03    0.35E-03    0.26E-06
   1      7    11.635     5.964    0.24E-03    0.31E-03    0.30E-06
   1      7    11.635     5.382    0.22E-03    0.25E-03    0.26E-06
  PAW_PBE Ca_sv 06Sep2000               :
  PAW_PBE Mn_pv 02Aug2007               :
  PAW_PBE P 06Sep2000                   :
  PAW_PBE O 08Apr2002                   :

 POSCAR: Ca5 Mn4 P6 O24
  positions in direct lattice
  velocities in cartesian coordinates

 METAGGA = SCAN     LMAXTAU =  6    LMIXTAU =  F

 ion  position               nearest neighbor table
   1  0.598  0.407  0.517-  22 2.32  19 2.36  17 2.37  26 2.38  15 2.42   5 3.14
   2  0.897  0.979  0.090-  18 2.33  23 2.35  20 2.37  25 2.38  21 2.41   7 3.14
   3  0.367  0.733  0.112-  33 2.36  32 2.36  20 2.36  22 2.44  31 2.44  16 2.45  24 2.46  10 3.00
                            14 3.00
   4  0.130  0.384  0.764-  38 2.36  27 2.37  26 2.37  18 2.44  16 2.45  35 2.45  24 2.45  12 2.99
                            14 3.00
   5  0.638  0.667  0.638-  30 1.85  19 1.88  32 1.91  15 1.93  28 2.16  17 2.48   1 3.14
   6  0.162  0.134  0.193-  27 2.02  29 2.06  31 2.08  20 2.13  16 2.39
   7  0.859  0.857  0.829-  34 1.85  23 1.88  38 1.91  21 1.93  36 2.17  25 2.44   2 3.14
   8  0.332  0.304  0.359-  33 2.02  37 2.06  35 2.08  26 2.14  24 2.39
   9  0.247  0.544  0.952-  17 1.53  25 1.53  27 1.55  33 1.55
  10  0.028  0.773  0.440-  28 1.51  34 1.53  24 1.54  20 1.56   3 3.00
  11  0.942  0.245  0.595-  29 1.52  35 1.52  19 1.54  21 1.54
  12  0.469  0.056  0.722-  36 1.51  30 1.53  16 1.54  26 1.56   4 2.99
  13  0.553  0.901  0.251-  37 1.52  31 1.52  23 1.54  15 1.54
  14  0.748  0.489  0.007-  22 1.52  18 1.52  38 1.54  32 1.55   3 3.00   4 3.00
  15  0.593  0.723  0.419-  13 1.54   5 1.93   1 2.42
  16  0.305  0.061  0.904-  12 1.54   6 2.39   4 2.45   3 2.45
  17  0.399  0.546  0.762-   9 1.53   1 2.37   5 2.48
  18  0.874  0.291  0.997-  14 1.52   2 2.33   4 2.44
  19  0.773  0.417  0.631-  11 1.54   5 1.88   1 2.36
  20  0.076  0.924  0.243-  10 1.56   6 2.13   3 2.36   2 2.37
  21  0.903  0.077  0.773-  11 1.54   7 1.93   2 2.41
  22  0.623  0.499  0.205-  14 1.52   1 2.32   3 2.44
  23  0.723  0.866  0.079-  13 1.54   7 1.88   2 2.35
  24  0.191  0.591  0.435-  10 1.54   8 2.39   4 2.45   3 2.46
  25  0.094  0.733  0.948-   9 1.53   2 2.38   7 2.44
  26  0.421  0.252  0.571-  12 1.56   8 2.14   4 2.37   1 2.38
  27  0.184  0.385  0.002-   9 1.55   6 2.02   4 2.37
  28  0.866  0.755  0.463-  10 1.51   5 2.16
  29  0.961  0.227  0.418-  11 1.52   6 2.06
  30  0.490  0.905  0.661-  12 1.53   5 1.85
  31  0.395  0.918  0.229-  13 1.52   6 2.08   3 2.44
  32  0.625  0.588  0.892-  14 1.55   5 1.91   3 2.36
  33  0.311  0.498  0.109-   9 1.55   8 2.02   3 2.36
  34  0.006  0.836  0.590-  10 1.53   7 1.85
  35  0.101  0.268  0.577-  11 1.52   8 2.08   4 2.45
  36  0.630  0.034  0.741-  12 1.51   7 2.17
  37  0.534  0.078  0.269-  13 1.52   8 2.06
  38  0.871  0.604  0.906-  14 1.54   7 1.91   4 2.36

IMPORTANT INFORMATION: All symmetrisations will be switched off!
NOSYMM: (Re-)initialisation of all symmetry stuff for point group C_1.

                                     Primitive cell

  volume of cell :     494.1644

  direct lattice vectors                    reciprocal lattice vectors
     2.653429869  7.814994932  4.513174181    -0.002781983  0.131599497 -0.004668024
     0.023342141  0.307001645  8.640985432    -0.063723922 -0.046244905  0.117542695
     7.537335003  0.308589124  4.207656003     0.133849596 -0.046184836  0.001279308

  length of vectors
     9.406570950  8.646468880  8.637766797     0.131711645  0.141476552  0.141599400

  position of ions in fractional coordinates (direct lattice)
     0.597795468  0.406938473  0.517033842
     0.897363614  0.978960306  0.089599390
     0.367477904  0.732697666  0.111797753
     0.129895398  0.383600819  0.764173637
     0.638269166  0.666941114  0.638391313
     0.162411653  0.134177500  0.193451309
     0.859106407  0.857194720  0.828933480
     0.332101622  0.304271611  0.359490114
     0.247241429  0.543600363  0.952358835
     0.027692516  0.773059258  0.439921201
     0.942378562  0.245017783  0.594943009
     0.468787423  0.056074261  0.722204434
     0.553384845  0.901317476  0.251246243
     0.748453224  0.488634537  0.007066519
     0.593352383  0.723242442  0.418560433
     0.305007362  0.061283519  0.904347123
     0.399176153  0.546387671  0.762277660
     0.873941047  0.290695553  0.997435856
     0.772663435  0.416816926  0.630717392
     0.075693285  0.923710520  0.243186445
     0.903265858  0.077466775  0.773169020
     0.622938472  0.498770640  0.204987698
     0.722811071  0.865954688  0.078924639
     0.191460416  0.591178504  0.435107546
     0.094407209  0.733200462  0.948284032
     0.420778026  0.252188840  0.570966390
     0.184221654  0.385049611  0.002352792
     0.865825171  0.754798397  0.462534324
     0.961331036  0.226567926  0.418426506
     0.489737247  0.905083137  0.660636581
     0.394729374  0.918440003  0.229485040
     0.625039113  0.588448669  0.892320275
     0.310786429  0.497694162  0.109159041
     0.006446378  0.836191605  0.589955368
     0.100762779  0.267932913  0.576962712
     0.630439254  0.033563327  0.740741817
     0.534120468  0.078013556  0.269383596
     0.871467464  0.603755697  0.906474915

  ion indices of the primitive-cell ions
   primitive index   ion index
                 1           1
                 2           2
                 3           3
                 4           4
                 5           5
                 6           6
                 7           7
                 8           8
                 9           9
                10          10
                11          11
                12          12
                13          13
                14          14
                15          15
                16          16
                17          17
                18          18
                19          19
                20          20
                21          21
                22          22
                23          23
                24          24
                25          25
                26          26
                27          27
                28          28
                29          29
                30          30
                31          31
                32          32
                33          33
                34          34
                35          35
                36          36
                37          37
                38          38

 KPOINTS: Fully automatic kpoint scheme

Automatic generation of k-mesh.
 generate k-points for:    4    5    5
Space group operators:
 irot       det(A)        alpha          n_x          n_y          n_z        tau_x        tau_y        tau_z
    1     1.000000     0.000000     1.000000     0.000000     0.000000     0.000000     0.000000     0.000000

 Subroutine IBZKPT returns following result:

 Found     51 irreducible k-points:

 Following reciprocal coordinates:
            Coordinates               Weight
  0.000000  0.000000  0.000000      1.000000
  0.250000 -0.000000  0.000000      2.000000
  0.500000 -0.000000  0.000000      1.000000
 -0.000000  0.200000 -0.000000      2.000000
  0.250000  0.200000  0.000000      2.000000
  0.500000  0.200000 -0.000000      2.000000
 -0.250000  0.200000  0.000000      2.000000
 -0.000000  0.400000  0.000000      2.000000
  0.250000  0.400000  0.000000      2.000000
  0.500000  0.400000  0.000000      2.000000
 -0.250000  0.400000  0.000000      2.000000
  0.000000 -0.000000  0.200000      2.000000
  0.250000 -0.000000  0.200000      2.000000
  0.500000 -0.000000  0.200000      2.000000
 -0.250000  0.000000  0.200000      2.000000
 -0.000000  0.200000  0.200000      2.000000
  0.250000  0.200000  0.200000      2.000000
  0.500000  0.200000  0.200000      2.000000
 -0.250000  0.200000  0.200000      2.000000
 -0.000000  0.400000  0.200000      2.000000
  0.250000  0.400000  0.200000      2.000000
  0.500000  0.400000  0.200000      2.000000
 -0.250000  0.400000  0.200000      2.000000
  0.000000 -0.400000  0.200000      2.000000
  0.250000 -0.400000  0.200000      2.000000
  0.500000 -0.400000  0.200000      2.000000
 -0.250000 -0.400000  0.200000      2.000000
  0.000000 -0.200000  0.200000      2.000000
  0.250000 -0.200000  0.200000      2.000000
  0.500000 -0.200000  0.200000      2.000000
 -0.250000 -0.200000  0.200000      2.000000
  0.000000 -0.000000  0.400000      2.000000
  0.250000 -0.000000  0.400000      2.000000
  0.500000 -0.000000  0.400000      2.000000
 -0.250000  0.000000  0.400000      2.000000
 -0.000000  0.200000  0.400000      2.000000
  0.250000  0.200000  0.400000      2.000000
  0.500000  0.200000  0.400000      2.000000
[...]
     47     -17.3427      1.00000
     48     -17.1498      1.00000
     49     -17.0992      1.00000
     50     -16.9117      1.00000
     51     -16.6213      1.00000
     52     -16.4698      1.00000
     53      -7.5108      1.00000
     54      -6.7900      1.00000
     55      -6.7272      1.00000
     56      -6.6487      1.00000
     57      -6.3370      1.00000
     58      -5.8487      1.00000
     59      -5.4289      1.00000
     60      -5.0759      1.00000
[...]
    162       9.9999      0.00000
    163      10.1907      0.00000
    164      10.2839      0.00000
    165      10.3764      0.00000
    166      10.4530      0.00000
    167      10.5603      0.00000
    168      10.7234      0.00000
    169      10.7680      0.00000
    170      10.8809      0.00000
    171      11.0565      0.00000
    172      11.1271      0.00000
    173      11.2431      0.00000
    174      11.3119      0.00000
    175      11.5416      0.00000
    176      11.7466      0.00000

[...]

 spin component 2

[...]

 k-point    51 :      -0.2500   -0.2000    0.4000
  band No.  band energies     occupation
      1     -45.4870      1.00000
      2     -45.4813      1.00000
      3     -45.2021      1.00000
      4     -45.1895      1.00000
      5     -44.1549      1.00000
      6     -44.1460      1.00000
      7     -42.4176      1.00000
      8     -42.4085      1.00000
      9     -42.2215      1.00000
     10     -42.2152      1.00000
     11     -42.1956      1.00000
     12     -42.1896      1.00000
     13     -38.3123      1.00000
     14     -38.2955      1.00000
     15     -38.1324      1.00000
     16     -38.1311      1.00000
     17     -20.6465      1.00000
     18     -20.3925      1.00000
     19     -20.3595      1.00000
     20     -20.2576      1.00000
     21     -20.2412      1.00000
     22     -19.4157      1.00000
     23     -18.9630      1.00000
     24     -18.7985      1.00000
     25     -18.7773      1.00000
     26     -18.6935      1.00000
     27     -18.6336      1.00000
     28     -18.5745      1.00000
     29     -18.5332      1.00000
     30     -18.4556      1.00000
     31     -18.3964      1.00000
     32     -18.3873      1.00000
     33     -18.3162      1.00000
     34     -18.2596      1.00000
     35     -17.9250      1.00000
     36     -17.7792      1.00000
     37     -17.6640      1.00000
     38     -17.6147      1.00000
     39     -17.5492      1.00000
     40     -17.5288      1.00000
     41     -17.4966      1.00000
     42     -17.4827      1.00000
     43     -17.4513      1.00000
     44     -17.3899      1.00000
     45     -17.3456      1.00000
     46     -17.2751      1.00000
     47     -17.2121      1.00000
     48     -17.1463      1.00000
     49     -17.1042      1.00000
     50     -16.8112      1.00000
     51     -16.5380      1.00000
     52     -16.3949      1.00000
     53      -6.9933      1.00000
     54      -6.8971      1.00000
     55      -6.6340      1.00000
     56      -6.4805      1.00000
     57      -6.3634      1.00000
     58      -5.7386      1.00000
     59      -5.0521      1.00000
     60      -4.8182      1.00000
[...]
    162      10.0301      0.00000
    163      10.0992      0.00000
    164      10.1721      0.00000
    165      10.2700      0.00000
    166      10.3762      0.00000
    167      10.5507      0.00000
    168      10.7834      0.00000
    169      11.0509      0.00000
    170      11.1613      0.00000
    171      11.3892      0.00000
    172      11.5190      0.00000
    173      11.5992      0.00000
    174      11.8719      0.00000
    175      12.0482      0.00000
    176      12.2083      0.00000

 soft charge-density along one line, spin component           1
         0         1         2         3         4         5         6         7         8         9
 total charge-density along one line

 soft charge-density along one line, spin component           2
         0         1         2         3         4         5         6         7         8         9
 total charge-density along one line

------------------------ aborting loop because EDIFF is reached ----------------------------------------

 total charge

# of ion       s       p       d       tot
    1        2.017   5.864   0.197   8.078
    2        2.017   5.864   0.196   8.077
    3        2.022   5.873   0.229   8.124
    4        2.022   5.872   0.228   8.123
    5        0.301   6.328   4.797  11.425
    6        0.203   6.174   4.927  11.304
    7        0.299   6.326   4.794  11.420
    8        0.202   6.173   4.926  11.302
    9        0.898   1.507   0.000   2.405
   10        0.905   1.530   0.000   2.435
   11        0.899   1.522   0.000   2.421
   12        0.905   1.529   0.000   2.434
   13        0.899   1.522   0.000   2.421
   14        0.904   1.533   0.000   2.437
   15        1.572   3.653   0.000   5.225
   16        1.575   3.622   0.000   5.196
   17        1.573   3.609   0.000   5.182
   18        1.575   3.631   0.000   5.206
   19        1.569   3.679   0.000   5.248
   20        1.573   3.645   0.000   5.218
   21        1.572   3.653   0.000   5.224
   22        1.575   3.631   0.000   5.207
   23        1.569   3.679   0.000   5.248
   24        1.575   3.621   0.000   5.196
   25        1.573   3.609   0.000   5.182
   26        1.573   3.643   0.000   5.216
   27        1.567   3.648   0.000   5.215
   28        1.575   3.614   0.000   5.189
   29        1.572   3.625   0.000   5.198
   30        1.576   3.650   0.000   5.227
   31        1.571   3.642   0.000   5.213
   32        1.574   3.661   0.000   5.234
   33        1.567   3.648   0.000   5.215
   34        1.576   3.651   0.000   5.227
   35        1.571   3.642   0.000   5.213
   36        1.575   3.613   0.000   5.188
   37        1.572   3.625   0.000   5.197
   38        1.573   3.661   0.000   5.234
tot         52.240 144.971  20.294 217.505

 magnetization (x)

[...]

  FORCE on cell =-STRESS in cart. coord.  units (eV):
  Direction    XX          YY          ZZ          XY          YZ          ZX
  Alpha Z   837.00981   837.00981   837.00981
  Ewald   -4711.63987 -5673.54505 -4355.00200  -253.91944  -436.40396   320.90909
  Hartree  2883.10450  2150.55185  3112.79199  -163.92675  -281.97053   208.18588
  E(xc)   -1411.51895 -1411.96818 -1411.71349    -0.11904    -0.20388    -0.16354
  Local   -2252.17368  -562.68244 -2830.76600   414.76159   713.37775  -522.42809
  n-local  -579.66229  -577.22609  -577.77752    -1.33752    -2.29769     1.61967
  augment   655.10156   661.85348   653.11950     2.00479     3.28908    -1.86683
  Kinetic  4579.87616  4576.01857  4572.41702     2.51224     4.22577    -6.28225
  Fock        0.00000     0.00000     0.00000     0.00000     0.00000     0.00000
  Total       0.09724     0.01195     0.07930    -0.02412     0.01654    -0.02606
  in kB       0.31526     0.03873     0.25711    -0.07822     0.05363    -0.08450

 VOLUME and BASIS-vectors are now :
  energy-cutoff  :      520.00
  volume of cell :      494.16
      direct lattice vectors                 reciprocal lattice vectors
     2.653429869  7.814994932  4.513174181    -0.002781983  0.131599497 -0.004668024
     0.023342141  0.307001645  8.640985432    -0.063723922 -0.046244905  0.117542695
     7.537335003  0.308589124  4.207656003     0.133849596 -0.046184836  0.001279308

  length of vectors
     9.406570950  8.646468880  8.637766797     0.131711645  0.141476552  0.141599400

 FORCES acting on ions:
    Electron-Ion                     Ewald-Force                    Non-Local-Force
   0.509E+02 -.852E+01 0.988E+02   -.512E+02 0.752E+01 -.969E+02   0.325E+00 0.101E+01 -.194E+01
   -.615E+02 0.828E+01 -.944E+02   0.596E+02 -.729E+01 0.937E+02   0.190E+01 -.101E+01 0.630E+00
   0.123E+02 0.565E+01 0.169E+02   -.112E+02 -.597E+01 -.175E+02   -.107E+01 0.319E+00 0.613E+00
   -.719E+01 -.752E+01 -.177E+02   0.823E+01 0.782E+01 0.170E+02   -.104E+01 -.298E+00 0.717E+00
   0.487E+02 0.190E+02 0.313E+02   -.490E+02 -.194E+02 -.300E+02   0.341E+00 0.404E+00 -.131E+01
   -.494E+02 0.724E+02 -.102E+03   0.500E+02 -.722E+02 0.104E+03   -.618E+00 -.263E+00 -.201E+01
   -.112E+01 -.146E+02 -.576E+02   -.128E+00 0.151E+02 0.573E+02   0.125E+01 -.487E+00 0.342E+00
   0.642E+02 -.738E+02 0.943E+02   -.656E+02 0.735E+02 -.957E+02   0.133E+01 0.297E+00 0.139E+01
   0.131E+02 -.131E+01 -.884E+01   -.149E+02 0.133E+01 0.981E+01   0.189E+01 -.445E-01 -.990E+00
   0.185E+02 0.173E+02 0.297E+01   -.180E+02 -.185E+02 -.486E+01   -.592E+00 0.119E+01 0.193E+01
   0.288E+01 -.327E+02 0.404E+01   -.484E+01 0.341E+02 -.499E+01   0.203E+01 -.140E+01 0.949E+00
   0.815E+01 -.172E+02 -.173E+02   -.621E+01 0.185E+02 0.178E+02   -.199E+01 -.128E+01 -.520E+00
   -.176E+01 0.331E+02 -.542E+01   0.166E+01 -.345E+02 0.758E+01   0.111E+00 0.140E+01 -.222E+01
   -.912E+02 0.132E+00 0.539E+02   0.924E+02 -.149E+00 -.546E+02   -.120E+01 0.864E-02 0.694E+00
   0.886E+02 0.332E+02 0.100E+03   -.675E+02 -.286E+02 -.119E+03   -.211E+02 -.459E+01 0.189E+02
   -.508E+01 0.772E+02 0.417E+02   0.257E+02 -.105E+03 -.415E+02   -.206E+02 0.277E+02 -.168E+00
   0.728E+02 0.163E+02 0.419E+02   -.969E+02 0.819E+01 -.427E+02   0.242E+02 -.245E+02 0.817E+00
   -.863E+02 -.749E+01 0.129E+03   0.931E+02 0.286E+02 -.158E+03   -.684E+01 -.211E+02 0.290E+02
   -.382E+02 -.280E+02 0.981E+02   0.394E+02 0.541E+01 -.876E+02   -.121E+01 0.226E+02 -.105E+02
   0.983E+02 0.856E+02 0.124E+02   -.127E+03 -.811E+02 0.718E+00   0.283E+02 -.448E+01 -.131E+02
   -.444E+02 -.328E+02 -.127E+03   0.711E+02 0.284E+02 0.117E+03   -.267E+02 0.444E+01 0.944E+01
   -.154E+03 0.812E+01 0.138E+02   0.183E+03 -.292E+02 -.567E+01   -.286E+02 0.211E+02 -.811E+01
   -.102E+03 0.315E+02 -.143E+02   0.930E+02 -.905E+01 0.816E+01   0.885E+01 -.225E+02 0.612E+01
   -.397E+02 -.788E+02 -.153E+02   0.496E+02 0.107E+03 -.278E+01   -.990E+01 -.278E+02 0.181E+02
   -.611E+01 -.228E+02 -.859E+02   -.487E+01 -.157E+01 0.107E+03   0.110E+02 0.244E+02 -.213E+02
   0.396E+02 -.860E+02 -.881E+02   -.651E+02 0.815E+02 0.106E+03   0.255E+02 0.452E+01 -.181E+02
   0.134E+02 0.145E+02 -.350E+02   -.121E+02 -.256E+02 0.977E+01   -.127E+01 0.111E+02 0.252E+02
   0.114E+03 0.939E+01 0.210E+02   -.123E+03 -.389E+02 -.401E+02   0.868E+01 0.295E+02 0.191E+02
   0.966E+02 0.829E+02 0.113E+02   -.126E+03 -.862E+02 -.297E+02   0.296E+02 0.330E+01 0.185E+02
   0.942E+02 0.163E+03 -.243E+02   -.110E+03 -.173E+03 -.189E+01   0.153E+02 0.971E+01 0.262E+02
   -.719E+02 0.332E+01 0.356E+02   0.614E+02 -.290E+02 -.533E+02   0.104E+02 0.257E+02 0.177E+02
   -.963E+02 0.600E+02 0.622E+02   0.798E+02 -.833E+02 -.670E+02   0.165E+02 0.233E+02 0.478E+01
   0.389E+02 -.153E+02 0.129E+01   -.166E+02 0.265E+02 0.107E+02   -.223E+02 -.112E+02 -.120E+02
   0.677E+02 -.160E+03 -.710E+02   -.526E+02 0.170E+03 0.973E+02   -.152E+02 -.951E+01 -.264E+02
   -.672E+02 -.417E+01 0.440E+02   0.776E+02 0.298E+02 -.260E+02   -.103E+02 -.256E+02 -.180E+02
   0.361E+02 -.101E+02 -.110E+03   -.235E+02 0.397E+02 0.127E+03   -.126E+02 -.296E+02 -.169E+02
   0.362E+02 -.816E+02 -.914E+02   -.344E+02 0.848E+02 0.126E+03   -.184E+01 -.322E+01 -.349E+02
   -.982E+02 -.579E+02 0.545E+02   0.940E+02 0.811E+02 -.377E+02   0.418E+01 -.231E+02 -.168E+02
   -.671E+01 0.542E-02 0.440E+01   0.128E-12 0.995E-13 -.142E-12   0.674E+01 -.559E-01 -.445E+01

 POSITION                                       TOTAL-FORCE (eV/Angst)
      5.49276      4.95625      8.38981         0.009618      0.009779     -0.010266
      3.07928      7.34108     12.88614         0.005783     -0.014209      0.000311
      1.83484      3.13128      8.46013         0.001399      0.003132      0.006046
      6.11346      1.36871      7.11631        -0.003906      0.003009     -0.010886
      6.52094      5.38982     11.32978        -0.002331      0.003575      0.011729
      1.89219      1.37014      2.70639         0.007199      0.000304      0.006452
      8.54754      7.23287     14.77217         0.002727     -0.001868     -0.004921
      3.59791      2.79972      5.64065        -0.001926     -0.003679      0.010259
      7.84697      2.39296      9.82028         0.003207     -0.021132      0.007052
      3.40736      0.58950      8.65601         0.005507     -0.017669     -0.002763
      6.99054      7.62350      8.87363         0.006042      0.002329     -0.016076
      6.68870      3.90365      5.63904        -0.005848      0.014052     -0.011810
      3.38313      4.67894     11.34295        -0.002262      0.001828      0.005707
      2.05064      6.00135      7.62992        -0.024209     -0.007142      0.005696
      4.74613      4.98825     10.68859         0.005151     -0.001667     -0.007350
      7.62711      2.68152      5.71128         0.007472     -0.004442      0.000285
      6.81748      3.52253      9.73028        -0.007651      0.014060     -0.001249
      9.84373      7.22689     10.65301         0.006238      0.014289     -0.002357
      6.81387      6.36096      9.74272         0.002841     -0.005747     -0.000498
      2.05539      0.95017      9.34663        -0.011030      0.002292     -0.003053
      8.22619      7.32139      7.99921        -0.006107      0.004155      0.003155
      3.20963      5.08464      7.98382         0.009416     -0.011446      0.006553
      2.53302      5.93897     11.07696         0.003312     -0.012727     -0.012894
      3.80138      1.81202      7.80324         0.005906      0.002451      0.001091
      7.41515      1.25552     10.75170         0.011536     -0.002519     -0.002022
      5.42596      3.54199      6.48063        -0.008532     -0.003294      0.005254
      0.51554      1.55863      4.16853        -0.009665     -0.006042     -0.008719
      5.80130      7.14088     12.37601        -0.009341      0.008421      0.007004
      5.70993      7.71148      8.05702        -0.000511     -0.006143     -0.000124
      6.30005      4.30902     12.81081        -0.003929      0.004527      0.007161
      2.79853      3.43759     10.68330        -0.006961     -0.003768     -0.001969
      8.39795      5.34069     11.66026         0.014186      0.003271      0.002242
      1.65904      2.61527      6.16250         0.003789      0.000487     -0.001662
      4.48331      0.48914      9.73694        -0.007066      0.004572      0.011925
      4.62238      1.04776      5.19762         0.006443      0.006758     -0.002717
      7.25683      5.16577      6.25209        -0.007653      0.013379      0.005699
      3.44951      4.28123      4.21817         0.001066     -0.000410      0.006273
      9.15888      7.27560     12.96426         0.000090      0.007235     -0.008557
    total drift:                                0.029005     -0.050434     -0.051709

  FREE ENERGIE OF THE ION-ELECTRON SYSTEM (eV)
  free  energy   TOTEN  =      -426.04205043 eV

  energy  without entropy=     -426.04205043  energy(sigma->0) =     -426.04205043

 reached required accuracy - stopping structural energy minimisation

 total charge

[...]

 magnetization (x)

# of ion       s       p       d       tot
    1        0.000   0.000   0.002   0.002
    2        0.000   0.000   0.002   0.002
    3        0.000   0.000   0.002   0.002
    4        0.000   0.000   0.002   0.002
    5        0.022   0.024   3.630   3.675
    6        0.024   0.031   4.471   4.526
    7        0.021   0.023   3.631   3.675
    8        0.024   0.031   4.472   4.527
    9        0.003   0.008   0.000   0.012
   10        0.005   0.009   0.000   0.014
   11        0.005   0.010   0.000   0.015
   12        0.005   0.009   0.000   0.014
   13        0.005   0.010   0.000   0.015
   14        0.002   0.004   0.000   0.007
   15        0.002   0.010   0.000   0.012
   16        0.005   0.014   0.000   0.019
   17        0.005   0.032   0.000   0.037
   18        0.001   0.002   0.000   0.002
   19        0.000   0.024   0.000   0.025
   20        0.004   0.022   0.000   0.026
   21        0.002   0.010   0.000   0.012
   22        0.001   0.001   0.000   0.002
   23        0.000   0.024   0.000   0.025
   24        0.005   0.015   0.000   0.019
   25        0.005   0.034   0.000   0.039
   26        0.004   0.022   0.000   0.026
   27        0.004   0.032   0.000   0.036
   28        0.010   0.043   0.000   0.052
   29        0.005   0.026   0.000   0.031
   30        0.001   0.022   0.000   0.023
   31        0.005   0.025   0.000   0.030
   32        0.001   0.008   0.000   0.009
   33        0.004   0.032   0.000   0.036
   34        0.001   0.023   0.000   0.023
   35        0.005   0.025   0.000   0.030
   36        0.009   0.042   0.000   0.051
   37        0.005   0.026   0.000   0.031
   38        0.001   0.008   0.000   0.009
tot          0.199   0.681  16.210  17.090