 vasp.6.1.2 22Jul20 (build Apr 14 2021 21:39:43) complex

 executed on             LinuxIFC date 2022.06.29  23:31:07

 INCAR:
 POTCAR:    PAW_PBE Ca_sv 06Sep2000
 POTCAR:    PAW_PBE Mn_pv 02Aug2007
 POTCAR:    PAW_PBE P 06Sep2000
 POTCAR:    PAW_PBE O 08Apr2002
 POTCAR:    PAW_PBE Ca_sv 06Sep2000
   VRHFIN =Ca: 3s3p4s

   TITEL  = PAW_PBE Ca_sv 06Sep2000
   POMASS =   40.078; ZVAL   =   10.000    mass and valenz
   ENMAX  =  266.622; ENMIN  =  199.967 eV

   TITEL  = PAW_PBE Mn_pv 02Aug2007
   POMASS =   54.938; ZVAL   =   13.000    mass and valenz
   ENMAX  =  269.864; ENMIN  =  202.398 eV

   TITEL  = PAW_PBE P 06Sep2000
   POMASS =   30.974; ZVAL   =    5.000    mass and valenz
   ENMAX  =  255.040; ENMIN  =  191.280 eV

   TITEL  = PAW_PBE O 08Apr2002
   POMASS =   16.000; ZVAL   =    6.000    mass and valenz
   ENMAX  =  400.000; ENMIN  =  300.000 eV

 Optimization of the real space projectors (new method)

 maximal supplied QI-value         = 16.25
 optimisation between [QCUT,QGAM] = [ 11.54, 23.24] = [ 37.28,151.24] Ry
 Optimized for a Real-space Cutoff    1.58 Angstroem

   l    n(q)    QCUT    max X(q) W(low)/X(q) W(high)/X(q)  e(spline)
   0     11    11.539    11.817    0.25E-04    0.22E-05    0.26E-07
   0     11    11.539     8.461    0.39E-04    0.49E-05    0.55E-07
   1     11    11.539     3.957    0.21E-05    0.44E-05    0.32E-07
   1     11    11.539     4.314    0.56E-04    0.44E-04    0.19E-06
   2     10    11.539    14.565    0.25E-03    0.21E-04    0.75E-06
   2     10    11.539    14.552    0.23E-03    0.22E-04    0.72E-06
 Optimization of the real space projectors (new method)

[...]

   l    n(q)    QCUT    max X(q) W(low)/X(q) W(high)/X(q)  e(spline)
   0      8    11.508   160.924    0.96E-04    0.17E-03    0.52E-07
   0      8    11.508   130.086    0.95E-04    0.17E-03    0.51E-07
   1      8    11.508    74.434    0.16E-03    0.74E-04    0.91E-07
   1      8    11.508    49.120    0.16E-03    0.71E-04    0.89E-07
 Optimization of the real space projectors (new method)

 maximal supplied QI-value         = 24.76
 optimisation between [QCUT,QGAM] = [ 11.64, 23.27] = [ 37.91,151.63] Ry
 Optimized for a Real-space Cutoff    1.14 Angstroem

   l    n(q)    QCUT    max X(q) W(low)/X(q) W(high)/X(q)  e(spline)
   0      8    11.635    20.381    0.10E-03    0.33E-03    0.24E-06
   0      8    11.635    15.268    0.11E-03    0.35E-03    0.26E-06
   1      7    11.635     5.964    0.24E-03    0.31E-03    0.30E-06
   1      7    11.635     5.382    0.22E-03    0.25E-03    0.26E-06
  PAW_PBE Ca_sv 06Sep2000               :
  PAW_PBE Mn_pv 02Aug2007               :
  PAW_PBE P 06Sep2000                   :
  PAW_PBE O 08Apr2002                   :

 POSCAR: Ca1 Mn4 P6 O24
  positions in direct lattice
  velocities in cartesian coordinates
 exchange correlation table for  LEXCH =        8
   RHO(1)=    0.500       N(1)  =     2000
   RHO(2)=  100.500       N(2)  =     4000

 ion  position               nearest neighbor table
   1  0.497  0.498  0.497-  21 2.42  23 2.42  19 2.42  16 2.42  12 2.42  14 2.42
   2  0.643  0.643  0.643-  25 1.85  27 1.85  29 1.85  16 1.96  14 1.96  12 1.96
   3  0.145  0.145  0.145-  24 1.90  28 1.90  26 1.90  15 1.91  17 1.91  13 1.91
   4  0.850  0.850  0.850-  33 1.90  35 1.90  31 1.90  18 1.91  22 1.91  20 1.91
   5  0.352  0.352  0.352-  34 1.85  32 1.85  30 1.85  21 1.96  19 1.96  23 1.96
   6  0.245  0.529  0.965-  22 1.53  30 1.54  24 1.56  14 1.56
   7  0.031  0.750  0.466-  17 1.53  25 1.54  31 1.56  21 1.56
   8  0.964  0.245  0.529-  18 1.53  32 1.54  26 1.56  16 1.56
   9  0.466  0.031  0.750-  13 1.53  27 1.54  33 1.56  23 1.56
  10  0.529  0.964  0.245-  20 1.53  34 1.54  28 1.56  12 1.56
  11  0.750  0.466  0.030-  15 1.53  29 1.54  35 1.56  19 1.56
  12  0.608  0.753  0.393-  10 1.56   2 1.96   1 2.42
  13  0.316  0.008  0.963-   9 1.53   3 1.91
  14  0.393  0.608  0.753-   6 1.56   2 1.96   1 2.42
  15  0.963  0.316  0.007-  11 1.53   3 1.91
  16  0.753  0.393  0.608-   8 1.56   2 1.96   1 2.42
  17  0.008  0.963  0.315-   7 1.53   3 1.91
  18  0.987  0.032  0.679-   8 1.53   4 1.91
  19  0.602  0.387  0.242-  11 1.56   5 1.96   1 2.42
  20  0.679  0.987  0.032-  10 1.53   4 1.91
  21  0.242  0.602  0.387-   7 1.56   5 1.96   1 2.42
  22  0.032  0.679  0.988-   6 1.53   4 1.91
  23  0.387  0.242  0.602-   9 1.56   5 1.96   1 2.42
  24  0.281  0.327  0.975-   6 1.56   3 1.90
  25  0.875  0.696  0.490-   7 1.54   2 1.85
  26  0.974  0.281  0.328-   8 1.56   3 1.90
  27  0.490  0.875  0.696-   9 1.54   2 1.85
  28  0.327  0.974  0.281-  10 1.56   3 1.90
  29  0.696  0.490  0.875-  11 1.54   2 1.85
  30  0.299  0.505  0.120-   6 1.54   5 1.85
  31  0.020  0.714  0.667-   7 1.56   4 1.90
  32  0.120  0.299  0.505-   8 1.54   5 1.85
  33  0.668  0.020  0.714-   9 1.56   4 1.90
  34  0.505  0.120  0.299-  10 1.54   5 1.85
  35  0.714  0.668  0.020-  11 1.56   4 1.90

IMPORTANT INFORMATION: All symmetrisations will be switched off!
NOSYMM: (Re-)initialisation of all symmetry stuff for point group C_1.

                                     Primitive cell

  volume of cell :     421.9036

  direct lattice vectors                    reciprocal lattice vectors
     2.725865831  6.909800136  4.547766308    -0.002636053  0.148676504 -0.004428416
     0.457010450  0.267073251  8.694488857    -0.070899592 -0.051217610  0.120315377
     7.451348048  0.266276292  4.504291809     0.139516685 -0.051247803 -0.005759242

  length of vectors
     8.709641832  8.710586844  8.711035271     0.148765798  0.148747389  0.148742770

  position of ions in fractional coordinates (direct lattice)
     0.497460984  0.497550954  0.497480818
     0.642891831  0.642833560  0.643012195
     0.145164304  0.145156844  0.145251919
     0.849845251  0.849870191  0.849745016
     0.352122904  0.352181157  0.352002672
     0.245049918  0.529114945  0.964598277
     0.030533600  0.749990104  0.465765391
     0.964430194  0.245078176  0.529171232
     0.465969474  0.030518253  0.749872798
     0.529001203  0.964449522  0.245170332
     0.749994130  0.465838444  0.030389881
     0.608067284  0.752645601  0.393026943
     0.315829977  0.007684781  0.963273868
     0.392833127  0.608131549  0.752688525
     0.963495398  0.315817083  0.007431037
     0.752539106  0.392901742  0.608193384
     0.007503173  0.963349827  0.315405003
     0.987450293  0.031709237  0.679478396
     0.602144143  0.386978587  0.242320387
     0.679150777  0.987294903  0.031776540
     0.242454194  0.602068451  0.386964776
     0.031566149  0.679116451  0.987514162
     0.387092676  0.242343982  0.601940859
     0.281280159  0.327341968  0.975032089
     0.875358955  0.695897325  0.490293105
     0.974407073  0.280993852  0.327734311
     0.490176575  0.875195833  0.696236659
     0.327387343  0.974444106  0.281383253
     0.696139526  0.489761806  0.875376668
     0.298652733  0.505181011  0.119792810
     0.020374242  0.714225675  0.667217834
     0.119803107  0.298903561  0.504626634
     0.667654278  0.020294132  0.713739488
     0.504670089  0.119927944  0.298675122
     0.713905826  0.667608443  0.019817614

  ion indices of the primitive-cell ions
   primitive index   ion index
                 1           1
                 2           2
                 3           3
                 4           4
                 5           5
                 6           6
                 7           7
                 8           8
                 9           9
                10          10
                11          11
                12          12
                13          13
                14          14
                15          15
                16          16
                17          17
                18          18
                19          19
                20          20
                21          21
                22          22
                23          23
                24          24
                25          25
                26          26
                27          27
                28          28
                29          29
                30          30
                31          31
                32          32
                33          33
                34          34
                35          35

 KPOINTS: Fully automatic kpoint scheme

Automatic generation of k-mesh.
 generate k-points for:    5    5    5
Space group operators:
 irot       det(A)        alpha          n_x          n_y          n_z        tau_x        tau_y        tau_z
    1     1.000000     0.000000     1.000000     0.000000     0.000000     0.000000     0.000000     0.000000

 Subroutine IBZKPT returns following result:

 Found     63 irreducible k-points:

 Following reciprocal coordinates:
            Coordinates               Weight
  0.000000  0.000000  0.000000      1.000000
  0.200000 -0.000000  0.000000      2.000000
  0.400000  0.000000  0.000000      2.000000
 -0.000000  0.200000  0.000000      2.000000
  0.000000 -0.000000 -0.200000      2.000000
  0.200000  0.200000  0.000000      2.000000
 -0.200000  0.000000 -0.200000      2.000000
  0.400000  0.200000  0.000000      2.000000
 -0.400000 -0.000000 -0.200000      2.000000
 -0.400000  0.200000 -0.000000      2.000000
  0.400000 -0.000000 -0.200000      2.000000
 -0.200000  0.200000 -0.000000      2.000000
  0.200000 -0.000000 -0.200000      2.000000
 -0.000000  0.400000  0.000000      2.000000
  0.000000 -0.000000 -0.400000      2.000000
  0.200000  0.400000  0.000000      2.000000
 -0.200000  0.000000 -0.400000      2.000000
  0.400000  0.400000  0.000000      2.000000
 -0.400000 -0.000000 -0.400000      2.000000
 -0.400000  0.400000  0.000000      2.000000
  0.400000 -0.000000 -0.400000      2.000000
 -0.200000  0.400000  0.000000      2.000000
  0.200000 -0.000000 -0.400000      2.000000
 -0.000000  0.200000  0.200000      2.000000
  0.200000  0.200000  0.200000      2.000000
  0.400000  0.200000  0.200000      2.000000
 -0.400000  0.200000  0.200000      2.000000
 -0.200000  0.200000  0.200000      2.000000
 -0.000000  0.400000  0.200000      2.000000
  0.000000 -0.200000 -0.400000      2.000000
  0.200000  0.400000  0.200000      2.000000
 -0.200000 -0.200000 -0.400000      2.000000
  0.400000  0.400000  0.200000      2.000000
 -0.400000 -0.200000 -0.400000      2.000000
 -0.400000  0.400000  0.200000      2.000000
  0.400000 -0.200000 -0.400000      2.000000
 -0.200000  0.400000  0.200000      2.000000
  0.200000 -0.200000 -0.400000      2.000000
  0.000000 -0.400000  0.200000      2.000000
  0.000000 -0.200000  0.400000      2.000000
  0.200000 -0.400000  0.200000      2.000000
 -0.200000 -0.200000  0.400000      2.000000
  0.400000 -0.400000  0.200000      2.000000
 -0.400000 -0.200000  0.400000      2.000000
 -0.400000 -0.400000  0.200000      2.000000
  0.400000 -0.200000  0.400000      2.000000
 -0.200000 -0.400000  0.200000      2.000000
  0.200000 -0.200000  0.400000      2.000000
 -0.000000 -0.200000  0.200000      2.000000
  0.200000 -0.200000  0.200000      2.000000
 -0.200000 -0.200000  0.200000      2.000000
  0.400000 -0.200000  0.200000      2.000000
[...]
     23     -16.8724      1.00000
     24     -16.7797      1.00000
     25     -16.6712      1.00000
     26     -16.5804      1.00000
     27     -16.5374      1.00000
     28     -16.5371      1.00000
     29     -16.4498      1.00000
     30     -16.4492      1.00000
     31     -16.3077      1.00000
     32     -16.3075      1.00000
     33     -16.2539      1.00000
     34     -16.2115      1.00000
     35     -16.2110      1.00000
     36     -16.2025      1.00000
     37     -16.2021      1.00000
     38     -16.1563      1.00000
     39     -16.1463      1.00000
     40     -16.1458      1.00000
     41      -7.5619      1.00000
     42      -6.6905      1.00000
     43      -6.6903      1.00000
     44      -6.4033      1.00000
     45      -6.3620      1.00000
     46      -6.3608      1.00000
     47      -5.5541      1.00000
     48      -4.9277      1.00000
     49      -4.9264      1.00000
     50      -4.8905      1.00000
     51      -4.7261      1.00000
     52      -4.6971      1.00000
     53      -4.6960      1.00000
     54      -4.4371      1.00000
     55      -4.4365      1.00000
     56      -4.2251      1.00000
     57      -4.0972      1.00000
     58      -4.0960      1.00000
     59      -4.0108      1.00000
     60      -3.6862      1.00000
[...]
    138       9.6025      0.00000
    139      10.3743      0.00000
    140      10.5743      0.00000
    141      10.5856      0.00000
    142      10.7956      0.00000
    143      10.8431      0.00000
    144      10.8621      0.00000
    145      10.9057      0.00000
    146      11.3135      0.00000
    147      11.4056      0.00000
    148      11.4184      0.00000
    149      11.4788      0.00000
    150      11.6175      0.00000
    151      11.6624      0.00000
    152      11.7441      0.00000

[...]

 spin component 2

[...]

 k-point    63 :      -0.4000   -0.4000    0.4000
  band No.  band energies     occupation
      1     -45.6449      1.00000
      2     -45.6437      1.00000
      3     -45.5572      1.00000
      4     -45.5569      1.00000
      5     -45.5568      1.00000
      6     -45.5566      1.00000
      7     -45.3055      1.00000
      8     -45.3054      1.00000
      9     -45.3050      1.00000
     10     -45.3047      1.00000
     11     -45.2730      1.00000
     12     -45.2728      1.00000
     13     -36.9205      1.00000
     14     -19.1012      1.00000
     15     -18.9826      1.00000
     16     -18.8304      1.00000
     17     -18.8179      1.00000
     18     -18.7547      1.00000
     19     -18.7380      1.00000
     20     -18.0280      1.00000
     21     -17.9769      1.00000
     22     -17.9670      1.00000
     23     -16.8659      1.00000
     24     -16.7185      1.00000
     25     -16.5506      1.00000
     26     -16.4814      1.00000
     27     -16.4537      1.00000
     28     -16.4312      1.00000
     29     -16.3928      1.00000
     30     -16.3749      1.00000
     31     -16.2488      1.00000
     32     -16.2216      1.00000
     33     -16.2115      1.00000
     34     -16.1986      1.00000
     35     -16.1931      1.00000
     36     -16.1779      1.00000
     37     -16.1597      1.00000
     38     -16.1571      1.00000
     39     -16.1376      1.00000
     40     -16.1278      1.00000
     41      -7.0195      1.00000
     42      -6.8830      1.00000
     43      -6.5527      1.00000
     44      -6.4671      1.00000
     45      -6.4082      1.00000
     46      -6.2731      1.00000
     47      -5.2458      1.00000
     48      -4.9411      1.00000
     49      -4.6184      1.00000
     50      -4.5731      1.00000
     51      -4.5027      1.00000
     52      -4.4786      1.00000
     53      -4.4277      1.00000
     54      -4.1889      1.00000
     55      -3.9937      1.00000
     56      -3.9618      1.00000
     57      -3.9229      1.00000
     58      -3.8800      1.00000
     59      -3.8492      1.00000
     60      -3.8069      1.00000
[...]
    138       9.5547      0.00000
    139       9.6475      0.00000
    140      10.3236      0.00000
    141      10.4755      0.00000
    142      10.8104      0.00000
    143      10.9390      0.00000
    144      11.0612      0.00000
    145      11.2054      0.00000
    146      11.5063      0.00000
    147      11.5882      0.00000
    148      11.6791      0.00000
    149      11.8153      0.00000
    150      11.8538      0.00000
    151      11.9952      0.00000
    152      12.1111      0.00000

 soft charge-density along one line, spin component           1
         0         1         2         3         4         5         6         7         8         9
 total charge-density along one line

 soft charge-density along one line, spin component           2
         0         1         2         3         4         5         6         7         8         9
 total charge-density along one line

------------------------ aborting loop because EDIFF is reached ----------------------------------------

 total charge

# of ion       s       p       d       tot
    1        2.017   5.860   0.197   8.074
    2        0.324   6.426   4.826  11.576
    3        0.322   6.419   4.804  11.545
    4        0.322   6.419   4.805  11.546
    5        0.324   6.426   4.826  11.576
    6        0.907   1.492   0.000   2.399
    7        0.907   1.492   0.000   2.398
    8        0.907   1.492   0.000   2.399
    9        0.907   1.492   0.000   2.398
   10        0.907   1.492   0.000   2.398
   11        0.907   1.492   0.000   2.399
   12        1.566   3.584   0.000   5.150
   13        1.569   3.572   0.000   5.141
   14        1.566   3.584   0.000   5.150
   15        1.569   3.572   0.000   5.141
   16        1.566   3.584   0.000   5.150
   17        1.569   3.572   0.000   5.141
   18        1.569   3.572   0.000   5.141
   19        1.566   3.584   0.000   5.150
   20        1.569   3.572   0.000   5.141
   21        1.566   3.585   0.000   5.151
   22        1.569   3.572   0.000   5.141
   23        1.566   3.585   0.000   5.151
   24        1.570   3.563   0.000   5.132
   25        1.564   3.589   0.000   5.153
   26        1.570   3.563   0.000   5.132
   27        1.564   3.589   0.000   5.153
   28        1.570   3.562   0.000   5.132
   29        1.564   3.589   0.000   5.153
   30        1.564   3.589   0.000   5.153
   31        1.570   3.563   0.000   5.133
   32        1.564   3.589   0.000   5.153
   33        1.570   3.563   0.000   5.132
   34        1.564   3.589   0.000   5.153
   35        1.570   3.563   0.000   5.133
tot         46.359 126.352  19.458 192.169

 magnetization (x)

[...]

  FORCE on cell =-STRESS in cart. coord.  units (eV):
  Direction    XX          YY          ZZ          XY          YZ          ZX
  Alpha Z   656.76482   656.76482   656.76482
  Ewald   -4064.82683 -4113.49216 -3884.07146    71.02687   118.45572   166.19390
  Hartree  2582.99497  2563.22205  2659.77847    29.85587    50.33464    69.94726
  E(xc)   -1189.05209 -1189.14519 -1188.71425     0.13389     0.22073     0.31278
  Local   -2249.35785 -2182.59890 -2500.72050   -98.45001  -164.74695  -230.46331
  n-local  -461.38063  -461.13971  -462.25176    -0.31621    -0.54685    -0.81730
  augment   540.25838   540.33861   539.94405    -0.14282    -0.21755    -0.29188
  Kinetic  4184.73461  4186.20082  4179.36137    -2.12979    -3.52850    -4.92525
  Fock        0.00000     0.00000     0.00000     0.00000     0.00000     0.00000
  Total       0.13538     0.15035     0.09075    -0.02219    -0.02877    -0.04381
  in kB       0.51412     0.57096     0.34463    -0.08428    -0.10926    -0.16636

 VOLUME and BASIS-vectors are now :
  energy-cutoff  :      520.00
  volume of cell :      421.90
      direct lattice vectors                 reciprocal lattice vectors
     2.725865831  6.909800136  4.547766308    -0.002636053  0.148676504 -0.004428416
     0.457010450  0.267073251  8.694488857    -0.070899592 -0.051217610  0.120315377
     7.451348048  0.266276292  4.504291809     0.139516685 -0.051247803 -0.005759242

  length of vectors
     8.709641832  8.710586844  8.711035271     0.148765798  0.148747389  0.148742770

 FORCES acting on ions:
    Electron-Ion                     Ewald-Force                    Non-Local-Force
   -.151E+00 -.958E-01 -.131E+00   0.148E+00 0.936E-01 0.127E+00   0.459E-02 0.394E-02 0.571E-02
   -.111E+02 -.784E+01 -.194E+02   0.122E+02 0.857E+01 0.212E+02   -.106E+01 -.739E+00 -.175E+01
   0.866E+02 0.606E+02 0.144E+03   -.868E+02 -.607E+02 -.144E+03   0.147E+00 0.103E+00 0.245E+00
   -.872E+02 -.608E+02 -.145E+03   0.873E+02 0.609E+02 0.145E+03   -.137E+00 -.985E-01 -.233E+00
   0.109E+02 0.764E+01 0.189E+02   -.119E+02 -.837E+01 -.207E+02   0.106E+01 0.741E+00 0.176E+01
   0.208E+01 0.204E+02 -.536E+02   -.236E+01 -.214E+02 0.534E+02   0.295E+00 0.100E+01 0.213E+00
   0.568E+02 0.449E+01 0.818E+01   -.571E+02 -.455E+01 -.721E+01   0.313E+00 0.506E-01 -.101E+01
   -.566E+02 -.442E+01 -.822E+01   0.569E+02 0.447E+01 0.725E+01   -.317E+00 -.469E-01 0.102E+01
   -.310E+01 0.522E+02 0.241E+02   0.402E+01 -.525E+02 -.237E+02   -.960E+00 0.295E+00 -.358E+00
   0.306E+01 -.521E+02 -.241E+02   -.399E+01 0.524E+02 0.237E+02   0.964E+00 -.296E+00 0.363E+00
   -.205E+01 -.206E+02 0.537E+02   0.232E+01 0.215E+02 -.535E+02   -.291E+00 -.993E+00 -.218E+00
   0.132E+03 -.666E+02 0.342E+02   -.117E+03 0.812E+02 -.540E+02   -.148E+02 -.146E+02 0.198E+02
   0.355E+02 0.477E+02 0.216E+03   -.108E+02 -.660E+02 -.228E+03   -.247E+02 0.183E+02 0.119E+02
   0.409E+02 0.146E+03 -.367E-01   -.672E+02 -.137E+03 0.696E+01   0.263E+02 -.934E+01 -.692E+01
   0.164E+03 0.155E+02 0.153E+03   -.170E+03 0.140E+02 -.167E+03   0.583E+01 -.294E+02 0.136E+02
   -.723E+02 -.942E+01 0.133E+03   0.780E+02 -.185E+02 -.130E+03   -.577E+01 0.279E+02 -.338E+01
   0.104E+03 0.148E+03 0.134E+03   -.128E+03 -.163E+03 -.118E+03   0.246E+02 0.150E+02 -.161E+02
   -.104E+03 -.148E+03 -.134E+03   0.128E+03 0.163E+03 0.118E+03   -.245E+02 -.150E+02 0.161E+02
   -.409E+02 -.146E+03 -.300E-01   0.671E+02 0.137E+03 -.685E+01   -.263E+02 0.936E+01 0.688E+01
   -.354E+02 -.477E+02 -.216E+03   0.108E+02 0.661E+02 0.228E+03   0.246E+02 -.183E+02 -.119E+02
   0.721E+02 0.946E+01 -.133E+03   -.778E+02 0.185E+02 0.130E+03   0.571E+01 -.279E+02 0.339E+01
   -.164E+03 -.155E+02 -.153E+03   0.169E+03 -.140E+02 0.166E+03   -.582E+01 0.294E+02 -.136E+02
   -.132E+03 0.664E+02 -.343E+02   0.117E+03 -.810E+02 0.541E+02   0.148E+02 0.145E+02 -.198E+02
   0.111E+03 -.131E+03 -.374E+02   -.117E+03 0.146E+03 0.105E+02   0.624E+01 -.154E+02 0.268E+02
   0.161E+03 -.119E+03 -.287E+02   -.177E+03 0.108E+03 0.727E+01   0.154E+02 0.116E+02 0.214E+02
   0.100E+02 0.148E+03 -.933E+02   -.396E+02 -.159E+03 0.913E+02   0.296E+02 0.108E+02 0.201E+01
   0.470E+01 0.192E+03 -.653E+02   -.158E+02 -.203E+03 0.409E+02   0.112E+02 0.106E+02 0.243E+02
   -.151E+03 -.383E+02 0.810E+02   0.159E+03 0.139E+02 -.995E+02   -.761E+01 0.244E+02 0.185E+02
   -.145E+03 -.584E+02 0.130E+03   0.130E+03 0.515E+02 -.154E+03   0.149E+02 0.688E+01 0.238E+02
   0.145E+03 0.586E+02 -.130E+03   -.130E+03 -.518E+02 0.154E+03   -.149E+02 -.679E+01 -.237E+02
   -.975E+01 -.148E+03 0.935E+02   0.393E+02 0.159E+03 -.914E+02   -.296E+02 -.108E+02 -.201E+01
   -.162E+03 0.119E+03 0.289E+02   0.177E+03 -.107E+03 -.753E+01   -.154E+02 -.116E+02 -.213E+02
   0.151E+03 0.386E+02 -.809E+02   -.159E+03 -.142E+02 0.993E+02   0.761E+01 -.244E+02 -.185E+02
   -.459E+01 -.192E+03 0.654E+02   0.157E+02 0.203E+03 -.411E+02   -.111E+02 -.106E+02 -.243E+02
   -.111E+03 0.131E+03 0.376E+02   0.117E+03 -.146E+03 -.108E+02   -.621E+01 0.154E+02 -.268E+02
   -.712E-01 -.576E-01 -.162E+00   0.185E-12 -.171E-12 0.977E-13   0.676E-01 0.637E-01 0.158E+00

 POSITION                                       TOTAL-FORCE (eV/Angst)
      5.29030      3.70271      8.82909         0.001792      0.001556      0.002501
      6.83753      4.78516     11.40915         0.011330      0.006533      0.018814
      1.54436      1.08050      2.57649        -0.009619     -0.006203     -0.017075
      9.03671      6.32551     15.08158         0.010419      0.006265      0.015527
      3.74368      2.62089      6.24893        -0.010820     -0.009006     -0.020631
      8.09734      2.09141     10.05965         0.002855     -0.000752      0.011966
      3.89656      0.53531      8.75758        -0.001785     -0.004406     -0.008301
      6.68395      6.87038      8.90037         0.008976      0.005033      0.007920
      6.87168      3.42758      5.76211        -0.004693     -0.000964     -0.007435
      3.70960      3.97815     11.89549         0.002209      0.008701      0.008897
      2.48372      5.31481      7.59791        -0.004869     -0.003400     -0.006611
      4.93006      4.50729     11.07952        -0.010977      0.000381      0.003948
      8.04211      2.44087      5.84200        -0.001344     -0.016063     -0.004717
      6.95728      3.07724     10.46423         0.004711     -0.007264     -0.001173
      2.82606      6.74389      7.16109         0.003685      0.001188     -0.015271
      6.76274      5.46678      9.57793         0.000110      0.008233     -0.005939
      2.81091      0.39312      9.83063        -0.012601      0.004705     -0.003285
      7.76918      7.01248      7.82696         0.014851     -0.004314     -0.002180
      3.62383      4.32857      7.19447        -0.000128      0.007575     -0.001212
      2.53926      4.96494     11.81577        -0.003706      0.016766      0.002230
      3.81946      1.93915      8.08030        -0.004458     -0.004040      0.006356
      7.75472      0.66244     10.49618        -0.005959     -0.006813      0.014615
      5.65119      2.89974      6.57878         0.009239     -0.004656     -0.000919
      8.18163      2.29064      8.51710        -0.001192     -0.005305      0.000795
      6.35749      6.36496     12.23982        -0.001169     -0.008476     -0.000782
      5.22658      6.89527      8.35068         0.004058      0.002314     -0.004756
      6.92403      3.80615     12.97464         0.000863      0.001692     -0.008791
      3.43443      2.59735     11.22861        -0.005663      0.003264      0.001120
      8.64415      5.17408     11.36706        -0.010997      0.001045     -0.000780
      1.93758      2.23045      6.29008         0.006805      0.008988      0.002739
      5.35362      0.50920      9.30783        -0.004447      0.006697     -0.002380
      4.22332      1.04201      5.41664         0.000301     -0.000041      0.008730
      7.14753      4.80883      6.42767        -0.003035     -0.009535      0.004073
      3.65600      3.59873      4.68315         0.006711      0.001508      0.005031
      2.39878      5.11652      9.14046         0.008546     -0.001208     -0.003027
    total drift:                               -0.003574      0.006125     -0.004070

  FREE ENERGIE OF THE ION-ELECTRON SYSTEM (eV)
  free  energy   TOTEN  =      -261.67276013 eV

  energy  without entropy=     -261.67276013  energy(sigma->0) =     -261.67276013

 reached required accuracy - stopping structural energy minimisation

 total charge

[...]

 magnetization (x)

# of ion       s       p       d       tot
    1        0.001   0.001   0.001   0.003
    2        0.011   0.022   2.665   2.698
    3        0.012   0.023   2.731   2.766
    4        0.012   0.023   2.730   2.765
    5        0.011   0.022   2.664   2.697
    6        0.004   0.007   0.000   0.011
    7        0.004   0.007   0.000   0.011
    8        0.004   0.007   0.000   0.011
    9        0.004   0.007   0.000   0.011
   10        0.004   0.007   0.000   0.011
   11        0.004   0.007   0.000   0.011
   12        0.001  -0.010   0.000  -0.009
   13        0.002   0.025   0.000   0.027
   14        0.001  -0.010   0.000  -0.009
   15        0.002   0.025   0.000   0.027
   16        0.001  -0.010   0.000  -0.009
   17        0.002   0.025   0.000   0.027
   18        0.002   0.025   0.000   0.027
   19        0.001  -0.010   0.000  -0.009
   20        0.002   0.025   0.000   0.027
   21        0.001  -0.010   0.000  -0.009
   22        0.002   0.025   0.000   0.027
   23        0.001  -0.010   0.000  -0.009
   24        0.001   0.014   0.000   0.016
   25        0.001   0.045   0.000   0.047
   26        0.001   0.014   0.000   0.015
   27        0.001   0.045   0.000   0.047
   28        0.001   0.014   0.000   0.015
   29        0.001   0.045   0.000   0.046
   30        0.001   0.045   0.000   0.046
   31        0.001   0.014   0.000   0.015
   32        0.001   0.045   0.000   0.047
   33        0.001   0.014   0.000   0.016
   34        0.001   0.045   0.000   0.047
   35        0.001   0.014   0.000   0.016
tot          0.102   0.578  10.790  11.470