 vasp.6.1.2 22Jul20 (build Dec 05 2020 14:50:36) complex

 executed on         CrayXC-Intel date 2021.06.04  00:03:30

 INCAR:
 POTCAR:    PAW_PBE Ca_sv 06Sep2000
 POTCAR:    PAW_PBE Ti_pv 07Sep2000
 POTCAR:    PAW_PBE Si 05Jan2001
 POTCAR:    PAW_PBE O 08Apr2002
 POTCAR:    PAW_PBE Ca_sv 06Sep2000
   VRHFIN =Ca: 3s3p4s

   TITEL  = PAW_PBE Ca_sv 06Sep2000
   POMASS =   40.078; ZVAL   =   10.000    mass and valenz
   ENMAX  =  266.622; ENMIN  =  199.967 eV

 POTCAR:    PAW_PBE Ti_pv 07Sep2000
   VRHFIN =Ti: d3 s1

   TITEL  = PAW_PBE Ti_pv 07Sep2000
   POMASS =   47.880; ZVAL   =   10.000    mass and valenz
   ENMAX  =  222.335; ENMIN  =  166.751 eV

 POTCAR:    PAW_PBE Si 05Jan2001
   VRHFIN =Si: s2p2

   TITEL  = PAW_PBE Si 05Jan2001
   POMASS =   28.085; ZVAL   =    4.000    mass and valenz
   ENMAX  =  245.345; ENMIN  =  184.009 eV

 POTCAR:    PAW_PBE O 08Apr2002
   VRHFIN =O: s2p4

   TITEL  = PAW_PBE O 08Apr2002
   POMASS =   16.000; ZVAL   =    6.000    mass and valenz
   ENMAX  =  400.000; ENMIN  =  300.000 eV

 Optimization of the real space projectors (new method)

 maximal supplied QI-value         = 16.25
 optimisation between [QCUT,QGAM] = [ 11.54, 23.24] = [ 37.28,151.24] Ry
 Optimized for a Real-space Cutoff    1.58 Angstroem

   l    n(q)    QCUT    max X(q) W(low)/X(q) W(high)/X(q)  e(spline)
   0     11    11.539    11.817    0.25E-04    0.22E-05    0.26E-07
   0     11    11.539     8.461    0.39E-04    0.49E-05    0.55E-07
   1     11    11.539     3.957    0.21E-05    0.44E-05    0.32E-07
   1     11    11.539     4.314    0.56E-04    0.44E-04    0.19E-06
   2     10    11.539    14.565    0.25E-03    0.21E-04    0.75E-06
   2     10    11.539    14.552    0.23E-03    0.22E-04    0.72E-06
 Optimization of the real space projectors (new method)

[...]

   l    n(q)    QCUT    max X(q) W(low)/X(q) W(high)/X(q)  e(spline)
   0      8    11.508   159.560    0.71E-04    0.15E-03    0.51E-07
   0      8    11.508   115.863    0.70E-04    0.15E-03    0.51E-07
   1      8    11.508    88.339    0.16E-03    0.38E-04    0.82E-07
   1      8    11.508    48.592    0.15E-03    0.36E-04    0.79E-07
 Optimization of the real space projectors (new method)

 maximal supplied QI-value         = 24.76
 optimisation between [QCUT,QGAM] = [ 11.64, 23.27] = [ 37.91,151.63] Ry
 Optimized for a Real-space Cutoff    1.14 Angstroem

   l    n(q)    QCUT    max X(q) W(low)/X(q) W(high)/X(q)  e(spline)
   0      8    11.635    20.381    0.10E-03    0.33E-03    0.24E-06
   0      8    11.635    15.268    0.11E-03    0.35E-03    0.26E-06
   1      7    11.635     5.964    0.24E-03    0.31E-03    0.30E-06
   1      7    11.635     5.382    0.22E-03    0.25E-03    0.26E-06
  PAW_PBE Ca_sv 06Sep2000               :
  PAW_PBE Ti_pv 07Sep2000               :
  PAW_PBE Si 05Jan2001                  :
  PAW_PBE O 08Apr2002                   :

 POSCAR: Ca2 Ti1 Si1 O6
  positions in direct lattice
  velocities in cartesian coordinates

 METAGGA = SCAN     LMAXTAU =  6    LMIXTAU =  F

 ion  position               nearest neighbor table
   1  0.250  0.250  0.250-
   2  0.750  0.750  0.750-
   3  0.500  0.500  0.500-  10 1.94   6 1.94   9 1.94   7 1.94   5 1.94   8 1.94
   4  1.000  1.000  0.000-   7 1.77   8 1.77   5 1.77   6 1.77   9 1.77  10 1.77
   5  0.761  0.239  0.239-   4 1.77   3 1.94
   6  0.761  0.239  0.761-   4 1.77   3 1.94
   7  0.761  0.761  0.239-   4 1.77   3 1.94
   8  0.239  0.761  0.761-   4 1.77   3 1.94
   9  0.239  0.761  0.239-   4 1.77   3 1.94
  10  0.239  0.239  0.761-   4 1.77   3 1.94

IMPORTANT INFORMATION: All symmetrisations will be switched off!
NOSYMM: (Re-)initialisation of all symmetry stuff for point group C_1.

                                     Primitive cell

  volume of cell :     102.8174

  direct lattice vectors                    reciprocal lattice vectors
    -3.718305810 -3.718303130 -0.000012627    -0.134470071 -0.134470169  0.134469392
    -3.718305754 -0.000012684 -3.718337217    -0.134470075  0.134470629 -0.134468936
    -0.000012654 -3.718303103 -3.718337247     0.134470531 -0.134470171 -0.134468934

  length of vectors
     5.258476611  5.258500674  5.258498821     0.232908660  0.232908665  0.232908662

  position of ions in fractional coordinates (direct lattice)
     0.249999831  0.249999838  0.249999780
     0.750000204  0.750000220  0.750000173
     0.499997507  0.499997489  0.500002498
     0.999999635  0.999999638  0.000000362
     0.761354696  0.238646191  0.238646026
     0.761350846  0.238648200  0.761351080
     0.761352611  0.761352606  0.238646672
     0.238645459  0.761353964  0.761353820
     0.238648925  0.761351564  0.238649157
     0.238650285  0.238650290  0.761350432

  ion indices of the primitive-cell ions
   primitive index   ion index
                 1           1
                 2           2
                 3           3
                 4           4
                 5           5
                 6           6
                 7           7
                 8           8
                 9           9
                10          10

 KPOINTS: K-points file

Automatic generation of k-mesh.
Space group operators:
 irot       det(A)        alpha          n_x          n_y          n_z        tau_x        tau_y        tau_z
    1     1.000000     0.000000     1.000000     0.000000     0.000000     0.000000     0.000000     0.000000

 Subroutine IBZKPT returns following result:

 Found    172 irreducible k-points:

 Following reciprocal coordinates:
            Coordinates               Weight
  0.000000  0.000000  0.000000      1.000000
  0.142857  0.000000 -0.000000      2.000000
 -0.142857 -0.142857 -0.142857      2.000000
  0.000000  0.142857 -0.000000      2.000000
  0.000000  0.000000 -0.142857      2.000000
  0.285714  0.000000 -0.000000      2.000000
 -0.285714 -0.285714 -0.285714      2.000000
  0.000000  0.285714 -0.000000      2.000000
  0.000000  0.000000 -0.285714      2.000000
  0.428571 -0.000000 -0.000000      2.000000
 -0.428571 -0.428571 -0.428571      2.000000
  0.000000  0.428571 -0.000000      2.000000
  0.000000 -0.000000 -0.428571      2.000000
  0.142857  0.142857 -0.000000      2.000000
 -0.000000 -0.142857 -0.142857      2.000000
 -0.142857 -0.000000 -0.142857      2.000000
  0.285714  0.142857 -0.000000      2.000000
 -0.142857 -0.285714 -0.285714      2.000000
 -0.142857  0.142857 -0.142857      2.000000
  0.142857  0.142857 -0.142857      2.000000
 -0.285714 -0.000000 -0.142857      2.000000
  0.142857  0.285714 -0.000000      2.000000
 -0.000000  0.142857  0.285714      2.000000
  0.285714  0.285714  0.142857      2.000000
  0.142857 -0.142857 -0.142857      2.000000
  0.142857  0.000000  0.285714      2.000000
 -0.000000 -0.285714 -0.142857      2.000000
 -0.285714 -0.142857 -0.285714      2.000000
  0.428571  0.142857 -0.000000      2.000000
 -0.285714 -0.428571 -0.428571      2.000000
 -0.142857  0.285714 -0.142857      2.000000
  0.142857  0.142857 -0.285714      2.000000
 -0.428571 -0.000000 -0.142857      2.000000
  0.142857  0.428571 -0.000000      2.000000
 -0.000000  0.142857  0.428571      2.000000
  0.428571  0.428571  0.285714      2.000000
  0.285714 -0.142857 -0.142857      2.000000
  0.142857 -0.000000  0.428571      2.000000
 -0.000000 -0.428571 -0.142857      2.000000
 -0.428571 -0.285714 -0.428571      2.000000
 -0.428571  0.142857 -0.000000      2.000000
 -0.428571  0.428571  0.428571      2.000000
 -0.142857  0.428571 -0.142857      2.000000
  0.142857  0.142857 -0.428571      2.000000
  0.428571  0.000000 -0.142857      2.000000
  0.142857 -0.428571  0.000000      2.000000
  0.000000  0.142857 -0.428571      2.000000
 -0.428571 -0.428571  0.428571      2.000000
  0.428571 -0.142857 -0.142857      2.000000
  0.142857  0.000000 -0.428571      2.000000
 -0.000000  0.428571 -0.142857      2.000000
  0.428571 -0.428571  0.428571      2.000000
 -0.285714  0.142857  0.000000      2.000000
  0.428571  0.285714  0.285714      2.000000
 -0.142857 -0.428571 -0.142857      2.000000
  0.142857  0.142857  0.428571      2.000000
  0.285714  0.000000 -0.142857      2.000000
  0.142857 -0.285714 -0.000000      2.000000
  0.000000  0.142857 -0.285714      2.000000
 -0.285714 -0.285714 -0.428571      2.000000
[...]
  0.285714 -0.142857  0.428571      2.000000
  0.428571  0.142857 -0.428571      2.000000
  0.142857 -0.428571 -0.285714      2.000000
 -0.285714  0.428571  0.142857      2.000000
 -0.285714  0.285714  0.428571      2.000000
 -0.428571  0.285714 -0.285714      2.000000
  0.428571  0.285714 -0.285714      2.000000
  0.285714 -0.142857 -0.428571      2.000000
  0.285714 -0.428571 -0.285714      2.000000
 -0.142857  0.285714 -0.428571      2.000000
 -0.428571 -0.142857  0.285714      2.000000
  0.285714 -0.285714  0.428571      2.000000
 -0.142857 -0.428571  0.285714      2.000000
  0.285714  0.428571 -0.285714      2.000000
  0.428571 -0.285714  0.142857      2.000000

 Following cartesian coordinates:
            Coordinates               Weight
  0.000000  0.000000  0.000000      1.000000
 -0.019210 -0.019210  0.019210      2.000000
  0.019210  0.019210  0.019210      2.000000
 -0.019210  0.019210 -0.019210      2.000000
 -0.019210  0.019210  0.019210      2.000000
 -0.038420 -0.038420  0.038420      2.000000
  0.038420  0.038420  0.038420      2.000000
 -0.038420  0.038420 -0.038420      2.000000
 -0.038420  0.038420  0.038420      2.000000
 -0.057630 -0.057630  0.057630      2.000000
  0.057630  0.057630  0.057629      2.000000
 -0.057630  0.057630 -0.057630      2.000000
 -0.057630  0.057630  0.057630      2.000000
 -0.038420  0.000000  0.000000      2.000000
 -0.000000 -0.000000  0.038420      2.000000
 -0.000000  0.038420 -0.000000      2.000000
 -0.057630 -0.019210  0.019210      2.000000
  0.019210  0.019210  0.057629      2.000000
 -0.019210  0.057630 -0.019210      2.000000
 -0.057630  0.019210  0.019210      2.000000
  0.019210  0.057630 -0.019210      2.000000
 -0.057630  0.019210 -0.019210      2.000000
  0.019210 -0.019210 -0.057630      2.000000
 -0.057630 -0.019210 -0.019210      2.000000
 -0.019210 -0.019210  0.057630      2.000000
  0.019210 -0.057630 -0.019210      2.000000
  0.019210 -0.019210  0.057630      2.000000
  0.019210  0.057630  0.019210      2.000000
 -0.076840 -0.038420  0.038420      2.000000
  0.038420  0.038420  0.076839      2.000000
 -0.038420  0.076840 -0.038420      2.000000
 -0.076840  0.038420  0.038420      2.000000
  0.038420  0.076840 -0.038420      2.000000
 -0.076840  0.038420 -0.038420      2.000000
  0.038420 -0.038420 -0.076839      2.000000
 -0.076840 -0.038420 -0.038420      2.000000
 -0.038420 -0.038420  0.076840      2.000000
  0.038420 -0.076840 -0.038420      2.000000
  0.038420 -0.038420  0.076839      2.000000
  0.038420  0.076840  0.038419      2.000000
  0.038420  0.076840 -0.076840      2.000000
  0.057630  0.057630 -0.172889      2.000000
 -0.057630  0.096050 -0.057630      2.000000
 -0.096050  0.057630  0.057630      2.000000
 -0.076840 -0.038420  0.076840      2.000000
  0.038420 -0.076840  0.076839      2.000000
 -0.076840  0.076840  0.038420      2.000000
  0.172890 -0.057630 -0.057630      2.000000
[...]

--------------------------------------- Iteration      1(   1)  ---------------------------------------

atom =   3  type =  2  l = 2

 onsite density matrix

spin component  1

  0.1266  0.0000  0.0000  0.0000  0.0000
  0.0000  0.1266 -0.0000  0.0000  0.0000
  0.0000 -0.0000  0.2775 -0.0000 -0.0000
  0.0000  0.0000 -0.0000  0.1266 -0.0000
  0.0000  0.0000 -0.0000 -0.0000  0.2775

[...]

 occupancies and eigenvectors

  o =  0.1266  v =  0.0784  0.2389 -0.0000 -0.9679 -0.0000  0.0000  0.0000  0.0000  0.0000  0.0000      0.0000  0.0000  0.0000  0.0000  0.0000  0.0000  0.0000  0.0000  0.0000  0.0000
  o =  0.1266  v =  0.0000  0.0000  0.0000  0.0000  0.0000  0.0841  0.2286 -0.0000 -0.9699 -0.0000      0.0000  0.0000  0.0000  0.0000  0.0000  0.0000  0.0000  0.0000  0.0000  0.0000
  o =  0.1266  v = -0.2236  0.9503  0.0000  0.2165 -0.0000  0.0000  0.0000  0.0000  0.0000  0.0000      0.0000  0.0000  0.0000  0.0000  0.0000  0.0000  0.0000  0.0000  0.0000  0.0000
  o =  0.1266  v =  0.0000  0.0000  0.0000  0.0000  0.0000 -0.2169  0.9542  0.0000  0.2061 -0.0000      0.0000  0.0000  0.0000  0.0000  0.0000  0.0000  0.0000  0.0000  0.0000  0.0000
  o =  0.1266  v =  0.9715  0.1995 -0.0000  0.1279 -0.0000  0.0000  0.0000  0.0000  0.0000  0.0000      0.0000  0.0000  0.0000  0.0000  0.0000  0.0000  0.0000  0.0000  0.0000  0.0000
  o =  0.1266  v =  0.0000  0.0000  0.0000  0.0000  0.0000  0.9726  0.1930 -0.0000  0.1299 -0.0000      0.0000  0.0000  0.0000  0.0000  0.0000  0.0000  0.0000  0.0000  0.0000  0.0000
  o =  0.2775  v = -0.0000 -0.0000 -0.1222  0.0000 -0.9925  0.0000  0.0000  0.0000  0.0000  0.0000      0.0000  0.0000  0.0000  0.0000  0.0000  0.0000  0.0000  0.0000  0.0000  0.0000
  o =  0.2775  v =  0.0000  0.0000  0.0000  0.0000  0.0000 -0.0000 -0.0000 -0.1222  0.0000 -0.9925      0.0000  0.0000  0.0000  0.0000  0.0000  0.0000  0.0000  0.0000  0.0000  0.0000
  o =  0.2775  v =  0.0000 -0.0000  0.9925 -0.0000 -0.1222  0.0000  0.0000  0.0000  0.0000  0.0000      0.0000  0.0000  0.0000  0.0000  0.0000  0.0000  0.0000  0.0000  0.0000  0.0000
  o =  0.2775  v =  0.0000  0.0000  0.0000  0.0000  0.0000  0.0000 -0.0000  0.9925 -0.0000 -0.1222      0.0000  0.0000  0.0000  0.0000  0.0000  0.0000  0.0000  0.0000  0.0000  0.0000

 eigenvalue-minimisations  : 28896
 total energy-change (2. order) : 0.7112058E+03  (-0.3742530E+04)
 number of electron      70.0000003 magnetization       0.0000000
 augmentation part       70.0000003 magnetization       0.0000000

 Free energy of the ion-electron system (eV)
  alpha Z        PSCENC =       347.43608452
  Ewald energy   TEWEN  =     -4753.78279842
  -Hartree energ DENC   =     -1145.89113968
  -exchange      EXHF   =         0.00000000
  -V(xc)+E(xc)   XCENC  =       337.98104588
  PAW double counting   =      7421.60275850    -7455.55150472
  entropy T*S    EENTRO =        -0.00267571
  eigenvalues    EBANDS =       207.42482059
  atomic energy  EATOM  =      5751.98921350
  Solvation  Ediel_sol  =         0.00000000
  free energy    TOTEN  =       711.20580446 eV

  energy without entropy =      711.20848017  energy(sigma->0) =      711.20714231

[...]

 eigenvalue-minimisations  : 30420
 total energy-change (2. order) :-0.7490377E+03  (-0.7194190E+03)
 number of electron      70.0000003 magnetization       0.0000000
 augmentation part       70.0000003 magnetization       0.0000000

[...]

 eigenvalue-minimisations  : 44784
 total energy-change (2. order) :-0.1285900E+00  (-0.1285452E+00)
 number of electron      70.0000003 magnetization      -0.0000000
 augmentation part       13.2491020 magnetization       0.0000037

 Broyden mixing:
  rms(total) = 0.35819E+00    rms(broyden)= 0.35806E+00
  rms(prec ) = 0.60749E+00
  weight for this iteration     100.00

[...]

 eigenvalues of (default mixing * dielectric matrix)
  average eigenvalue GAMMA=   0.6028
  0.6028

[...]

 Broyden mixing:
  rms(total) = 0.35257E-03    rms(broyden)= 0.35198E-03
  rms(prec ) = 0.47798E-03
  weight for this iteration     100.00

 eigenvalues of (default mixing * dielectric matrix)
  average eigenvalue GAMMA=   1.0971
  2.7077  2.7077  1.2819  1.2819  0.8988  0.8988  0.7317  0.7317  0.6003  0.6003
  0.5410  0.1834

[...]

--------------------------------------- Iteration      1(  18)  ---------------------------------------

atom =   3  type =  2  l = 2

 onsite density matrix

[...]

  0.1266  0.0000  0.0000  0.0000  0.0000
  0.0000  0.1266 -0.0000  0.0000  0.0000
  0.0000 -0.0000  0.2775 -0.0000 -0.0000
  0.0000  0.0000 -0.0000  0.1266 -0.0000
  0.0000  0.0000 -0.0000 -0.0000  0.2775

 occupancies and eigenvectors

  o =  0.1266  v =  0.0797  0.2350 -0.0000 -0.9687 -0.0000  0.0000  0.0000  0.0000  0.0000  0.0000      0.0000  0.0000  0.0000  0.0000  0.0000  0.0000  0.0000  0.0000  0.0000  0.0000
  o =  0.1266  v =  0.0000  0.0000  0.0000  0.0000  0.0000  0.0711  0.2327 -0.0000 -0.9700 -0.0000      0.0000  0.0000  0.0000  0.0000  0.0000  0.0000  0.0000  0.0000  0.0000  0.0000
  o =  0.1266  v = -0.1893  0.9577  0.0000  0.2168 -0.0000  0.0000  0.0000  0.0000  0.0000  0.0000      0.0000  0.0000  0.0000  0.0000  0.0000  0.0000  0.0000  0.0000  0.0000  0.0000
  o =  0.1266  v =  0.0000  0.0000  0.0000  0.0000  0.0000 -0.2060  0.9549  0.0000  0.2139 -0.0000      0.0000  0.0000  0.0000  0.0000  0.0000  0.0000  0.0000  0.0000  0.0000  0.0000
  o =  0.1266  v =  0.9787  0.1661 -0.0000  0.1208 -0.0000  0.0000  0.0000  0.0000  0.0000  0.0000      0.0000  0.0000  0.0000  0.0000  0.0000  0.0000  0.0000  0.0000  0.0000  0.0000
  o =  0.1266  v =  0.0000  0.0000  0.0000  0.0000  0.0000  0.9760  0.1846 -0.0000  0.1158 -0.0000      0.0000  0.0000  0.0000  0.0000  0.0000  0.0000  0.0000  0.0000  0.0000  0.0000
  o =  0.2775  v = -0.0000 -0.0000 -0.1178  0.0000 -0.9930  0.0000  0.0000  0.0000  0.0000  0.0000      0.0000  0.0000  0.0000  0.0000  0.0000  0.0000  0.0000  0.0000  0.0000  0.0000
  o =  0.2775  v =  0.0000  0.0000  0.0000  0.0000  0.0000 -0.0000 -0.0000 -0.1210  0.0000 -0.9926      0.0000  0.0000  0.0000  0.0000  0.0000  0.0000  0.0000  0.0000  0.0000  0.0000
  o =  0.2775  v =  0.0000 -0.0000  0.9930 -0.0000 -0.1178  0.0000  0.0000  0.0000  0.0000  0.0000      0.0000  0.0000  0.0000  0.0000  0.0000  0.0000  0.0000  0.0000  0.0000  0.0000
  o =  0.2775  v =  0.0000  0.0000  0.0000  0.0000  0.0000  0.0000 -0.0000  0.9926 -0.0000 -0.1210      0.0000  0.0000  0.0000  0.0000  0.0000  0.0000  0.0000  0.0000  0.0000  0.0000

 eigenvalue-minimisations  : 18126
 total energy-change (2. order) : 0.9606511E-06  (-0.2311830E-06)
 number of electron      70.0000003 magnetization       0.0000000
 augmentation part       13.7476634 magnetization      -0.0000002

 Free energy of the ion-electron system (eV)
  alpha Z        PSCENC =       347.43608452
  Ewald energy   TEWEN  =     -4753.78279842
  -Hartree energ DENC   =     -1145.88545573
  -exchange      EXHF   =         0.00000000
  -V(xc)+E(xc)   XCENC  =       346.52098988
  PAW double counting   =      7421.18981647    -7455.13054061
  entropy T*S    EENTRO =        -0.00000000
  eigenvalues    EBANDS =      -626.21882927
  atomic energy  EATOM  =      5751.98921350
  Solvation  Ediel_sol  =         0.00000000
  free energy    TOTEN  =      -113.88151966 eV

  energy without entropy =     -113.88151966  energy(sigma->0) =     -113.88151966

 average (electrostatic) potential at core
  the test charge radii are     1.1137  1.0397  0.9892  0.7215
  (the norm of the test charge is              1.0000)
       1 -46.7825       2 -46.7825       3 -57.8013       4 -86.6994       5 -72.7824
       6 -72.7825       7 -72.7823       8 -72.7824       9 -72.7825      10 -72.7826

 E-fermi :   5.0607     XC(G=0): -12.2587     alpha+bet :-14.8350

[...]

 k-point     1 :       0.0000    0.0000    0.0000
  band No.  band energies     occupation
      1     -35.7239      1.00000
      2     -35.6912      1.00000
      3     -30.3976      1.00000
      4     -30.3961      1.00000
      5     -30.3960      1.00000
      6     -15.9159      1.00000
      7     -15.9159      1.00000
      8     -15.9159      1.00000
      9     -15.8006      1.00000
     10     -15.8006      1.00000
     11     -15.8006      1.00000
     12     -15.7229      1.00000
     13     -13.6079      1.00000
     14     -13.6079      1.00000
     15     -13.6079      1.00000
     16     -13.1296      1.00000
     17     -13.1295      1.00000
     18      -3.6975      1.00000
     19      -0.5789      1.00000
     20      -0.5789      1.00000
     21      -0.5788      1.00000
     22       0.0871      1.00000
     23       0.0872      1.00000
     24       0.0872      1.00000
     25       0.8307      1.00000
     26       0.8308      1.00000
     27       3.3054      1.00000
     28       3.3054      1.00000
     29       3.3054      1.00000
     30       3.8349      1.00000
     31       3.8350      1.00000
     32       3.8350      1.00000
     33       4.7730      1.00000
     34       4.7730      1.00000
     35       4.7730      1.00000
     36       7.8440      0.00000
     37       7.8440      0.00000
     38       7.8443      0.00000
     39      10.1799      0.00000
     40      10.1799      0.00000
     41      11.1087      0.00000
     42      11.1106      0.00000

[...]

 spin component 2

[...]

 k-point   172 :       0.4286   -0.2857    0.1429
  band No.  band energies     occupation
      1     -35.7077      1.00000
      2     -35.7062      1.00000
      3     -30.3983      1.00000
      4     -30.3962      1.00000
      5     -30.3960      1.00000
      6     -16.5029      1.00000
      7     -16.2517      1.00000
      8     -16.0108      1.00000
      9     -15.9242      1.00000
     10     -15.7770      1.00000
     11     -15.7617      1.00000
     12     -14.6487      1.00000
     13     -13.6200      1.00000
     14     -13.5363      1.00000
     15     -13.5273      1.00000
     16     -13.2455      1.00000
     17     -12.9130      1.00000
     18      -2.8825      1.00000
     19      -1.1539      1.00000
     20      -0.4295      1.00000
     21      -0.1174      1.00000
     22       0.0944      1.00000
     23       0.4561      1.00000
     24       0.8544      1.00000
     25       1.4746      1.00000
     26       1.5238      1.00000
     27       1.9418      1.00000
     28       2.3057      1.00000
     29       2.4378      1.00000
     30       2.5745      1.00000
     31       2.7344      1.00000
     32       2.7970      1.00000
     33       3.2589      1.00000
     34       3.7828      1.00000
     35       4.1522      1.00000
     36       8.3516      0.00000
     37       8.5445      0.00000
     38       8.8308      0.00000
     39       9.8160      0.00000
     40      10.6682      0.00000
     41      11.9727      0.00000
     42      12.0421      0.00000

 soft charge-density along one line, spin component           1
         0         1         2         3         4         5         6         7         8         9
 total charge-density along one line

 soft charge-density along one line, spin component           2
         0         1         2         3         4         5         6         7         8         9
 total charge-density along one line

------------------------ aborting loop because EDIFF is reached ----------------------------------------

 total charge

# of ion       s       p       d       tot
    1        2.015   5.858   0.210   8.083
    2        2.015   5.858   0.210   8.083
    3        0.360   6.513   1.834   8.706
    4        0.569   0.862   0.000   1.432
    5        1.568   3.599   0.000   5.166
    6        1.568   3.599   0.000   5.166
    7        1.568   3.599   0.000   5.166
    8        1.568   3.599   0.000   5.166
    9        1.568   3.599   0.000   5.166
   10        1.568   3.599   0.000   5.166
tot         14.365  40.683   2.254  57.301

 magnetization (x)

[...]

  FORCE on cell =-STRESS in cart. coord.  units (eV):
  Direction    XX          YY          ZZ          XY          YZ          ZX
  Alpha Z   347.43608   347.43608   347.43608
  Ewald   -1584.58946 -1584.58749 -1584.61352    -0.00244    -0.00244    -0.00244
  Hartree   381.97116   381.97198   381.96082    -0.00176    -0.00175    -0.00175
  E(xc)    -351.97011  -351.97009  -351.97040     0.00021     0.00021     0.00021
  Local      86.25851    86.25582    86.29151     0.00433     0.00431     0.00432
  n-local  -201.71130  -201.71157  -201.70516    -0.00001    -0.00001    -0.00001
  augment   151.93063   151.93046   151.93296     0.00049     0.00049     0.00049
  Kinetic  1170.81684  1170.81707  1170.81332    -0.00093    -0.00093    -0.00093
  Fock        0.00000     0.00000     0.00000     0.00000     0.00000     0.00000
  Total       0.14236     0.14224     0.14561    -0.00011    -0.00011    -0.00011
  in kB       2.21830     2.21655     2.26898    -0.00167    -0.00167    -0.00168

 VOLUME and BASIS-vectors are now :
  energy-cutoff  :      520.00
  volume of cell :      102.82
      direct lattice vectors                 reciprocal lattice vectors
    -3.718305810 -3.718303130 -0.000012627    -0.134470071 -0.134470169  0.134469392
    -3.718305754 -0.000012684 -3.718337217    -0.134470075  0.134470629 -0.134468936
    -0.000012654 -3.718303103 -3.718337247     0.134470531 -0.134470171 -0.134468934

  length of vectors
     5.258476611  5.258500674  5.258498821     0.232908660  0.232908665  0.232908662

 FORCES acting on ions
    electron-ion (+dipol)            ewald-force                    non-local-force                 convergence-correction
   0.179E-03 0.222E-02 0.220E-02   -.715E-04 -.215E-02 -.212E-02   -.708E-04 -.703E-04 -.692E-04   0.888E-05 0.158E-04 0.129E-04
   -.423E-02 -.221E-02 -.222E-02   0.417E-02 0.213E-02 0.214E-02   0.645E-04 0.675E-04 0.666E-04   -.116E-04 -.131E-04 -.931E-05
   0.877E-02 -.190E-05 0.217E-04   -.120E-01 0.308E-05 -.201E-04   0.339E-02 -.181E-05 -.347E-05   0.163E-05 -.199E-06 -.242E-05
   0.441E-02 0.497E-05 0.154E-05   -.286E-02 -.440E-05 -.599E-06   -.127E-02 -.130E-05 -.508E-06   -.284E-08 0.183E-06 0.611E-07
   0.105E-02 -.142E-02 -.517E+02   -.120E-02 0.124E-02 0.464E+02   0.253E-04 0.158E-03 0.526E+01   -.791E-05 -.563E-05 -.283E-03
   0.377E-02 0.517E+02 0.143E-02   -.373E-02 -.465E+02 -.125E-02   -.719E-04 -.526E+01 -.158E-03   0.583E-05 0.282E-03 0.520E-05
   0.517E+02 0.142E-02 0.143E-02   -.464E+02 -.125E-02 -.126E-02   -.526E+01 -.156E-03 -.158E-03   0.281E-03 0.708E-05 0.849E-05
   0.391E-02 0.142E-02 0.517E+02   -.370E-02 -.124E-02 -.464E+02   -.294E-03 -.159E-03 -.526E+01   0.778E-05 0.685E-05 0.283E-03
   0.917E-03 -.517E+02 -.141E-02   -.123E-02 0.465E+02 0.123E-02   0.245E-03 0.526E+01 0.159E-03   -.664E-05 -.282E-03 -.614E-05
   -.517E+02 -.143E-02 -.142E-02   0.465E+02 0.125E-02 0.124E-02   0.526E+01 0.156E-03 0.160E-03   -.281E-03 -.844E-05 -.937E-05
   0.110E-02 0.232E-05 0.180E-05   0.000E+00 -.302E-13 0.340E-13   -.129E-02 -.760E-05 -.728E-05   -.242E-05 0.213E-05 -.302E-06

 POSITION                                       TOTAL-FORCE (eV/Angst)
     -1.85915     -1.85915     -1.85917         0.000065      0.000024      0.000023
     -5.57747     -5.57747     -5.57752         0.000016     -0.000025     -0.000023
     -3.71829     -3.71831     -3.71834         0.000149     -0.000000     -0.000003
     -7.43661     -3.71832     -3.71835         0.000254     -0.000000      0.000001
     -3.71831     -3.71831     -1.77474        -0.000112     -0.000029      0.009772
     -3.71831     -5.66187     -3.71834         0.000002     -0.008995      0.000030
     -5.66189     -3.71831     -3.71834        -0.009139      0.000030      0.000029
     -3.71831     -3.71831     -5.66194        -0.000055      0.000030     -0.009771
     -3.71831     -1.77475     -3.71834        -0.000056      0.008996     -0.000029
     -1.77476     -3.71831     -3.71834         0.008876     -0.000030     -0.000028
    total drift:                               -0.000194     -0.000003     -0.000006

  FREE ENERGIE OF THE ION-ELECTRON SYSTEM (eV)
  free  energy   TOTEN  =      -113.88151966 eV

  energy  without entropy=     -113.88151966  energy(sigma->0) =     -113.88151966

 reached required accuracy - stopping structural energy minimisation

 total charge

[...]

 magnetization (x)

# of ion       s       p       d       tot
    1        0.000  -0.000  -0.000  -0.000
    2       -0.000  -0.000  -0.000  -0.000
    3       -0.000  -0.000  -0.000  -0.000
    4       -0.000  -0.000   0.000  -0.000
    5        0.000   0.000   0.000   0.000
    6        0.000   0.000   0.000   0.000
    7        0.000   0.000   0.000   0.000
    8        0.000   0.000   0.000   0.000
    9        0.000   0.000   0.000   0.000
   10        0.000   0.000   0.000   0.000
tot          0.000   0.000  -0.000   0.000